*SPEF "IEEE 1481-1998"
*DESIGN "gcd_icg"
*DATE "Fri Jul 31 10:56:02 2026"
*VENDOR "ECOS"
*PROGRAM "iRCX"
*VERSION "1.0"
*DESIGN_FLOW "PIN_CAP NONE"
*DIVIDER /
*DELIMITER :
*BUS_DELIMITER []
*T_UNIT 1.0 NS
*C_UNIT 1.0 FF
*R_UNIT 1.0 OHM
*L_UNIT 1.0 HENRY

*NAME_MAP
*285 clk
*286 req_msg_0_
*287 req_msg_1_
*288 req_msg_2_
*289 req_msg_3_
*290 req_msg_4_
*291 req_msg_5_
*292 req_msg_6_
*293 req_msg_7_
*294 req_msg_8_
*295 req_msg_9_
*296 req_msg_10_
*297 req_msg_11_
*298 req_msg_12_
*299 req_msg_13_
*300 req_msg_14_
*301 req_msg_15_
*302 req_msg_16_
*303 req_msg_17_
*304 req_msg_18_
*305 req_msg_19_
*306 req_msg_20_
*307 req_msg_21_
*308 req_msg_22_
*309 req_msg_23_
*310 req_msg_24_
*311 req_msg_25_
*312 req_msg_26_
*313 req_msg_27_
*314 req_msg_28_
*315 req_msg_29_
*316 req_msg_30_
*317 req_msg_31_
*318 req_rdy
*319 req_val
*320 reset
*321 resp_msg_0_
*322 resp_msg_1_
*323 resp_msg_2_
*324 resp_msg_3_
*325 resp_msg_4_
*326 resp_msg_5_
*327 resp_msg_6_
*328 resp_msg_7_
*329 resp_msg_8_
*330 resp_msg_9_
*331 resp_msg_10_
*332 resp_msg_11_
*333 resp_msg_12_
*334 resp_msg_13_
*335 resp_msg_14_
*336 resp_msg_15_
*337 resp_rdy
*338 resp_val
*339 ctrl$a_reg_en_0__ICGX0P5H7L_E
*340 ctrl$a_reg_en_0__OR2X1P4H7L_Y
*341 ctrl$b_reg_en_0__AO21X1H7L_Y
*342 ctrl$b_reg_en_0__ICGX0P5H7L_E
*343 ctrl\.state\.out_1__reg_p
*344 ctrl\.state\.out_2__reg_p
*345 dpath\.a_lt_b$in0_0__XOR2X0P5H7L_B
*346 dpath\.a_lt_b$in0_0__reg_p
*347 dpath\.a_lt_b$in0_10__NAND2BX0P5H7L_B
*348 dpath\.a_lt_b$in0_10__NOR2BX1H7L_B
*349 dpath\.a_lt_b$in0_10__NOR2BX1H7L_B_Z_AO211X1P4H7L_B0
*350 dpath\.a_lt_b$in0_10__NOR2BX1H7L_B_Z_AO211X1P4H7L_B0_A1_NAND2BX1H7L_Y
*351 dpath\.a_lt_b$in0_10__NOR2BX1H7L_B_Z_AO211X1P4H7L_B0_A1_OAI21X0P5H7L_A1
*352 dpath\.a_lt_b$in0_10__NOR2BX1H7L_B_Z_NAND2BX0P5H7L_AN
*353 dpath\.a_lt_b$in0_10__NOR2BX1H7L_B_Z_NAND2BX0P5H7L_AN_Y_XOR2X0P5H7L_A
*354 dpath\.a_lt_b$in0_10__NOR2BX1H7L_B_Z_NAND2BX0P5H7L_AN_Y_XOR2X0P5H7L_A_B_OAOI211X0P5H7L_Y
*355 dpath\.a_lt_b$in0_10__NOR2BX1H7L_B_Z_NAND2BX0P5H7L_AN_Y_XOR2X0P5H7L_A_B_OAOI211X0P5H7L_Y_A0_NOR2BX1H7L_Z
*356 dpath\.a_lt_b$in0_10__NOR2BX1H7L_B_Z_NAND2BX0P5H7L_AN_Y_XOR2X0P5H7L_A_B_OAOI211X0P5H7L_Y_A1_NOR2X0P5H7L_Y
*357 dpath\.a_lt_b$in0_10__NOR2BX1H7L_B_Z_NOR2X0P5H7L_B
*358 dpath\.a_lt_b$in0_10__NOR2BX1H7L_B_Z_NOR2X0P5H7L_B_A_NAND3BBX0P5H7L_Y
*359 dpath\.a_lt_b$in0_10__NOR2BX1H7L_B_Z_NOR2X0P5H7L_B_A_NAND3BBX0P5H7L_Y_BN_XNOR2X0P5H7L_B
*360 dpath\.a_lt_b$in0_10__NOR2BX1H7L_B_Z_NOR2X0P5H7L_B_A_NAND3BBX0P5H7L_Y_BN_XOR2X0P5H7L_Y
*361 dpath\.a_lt_b$in0_10__NOR2BX1H7L_B_Z_NOR2X0P5H7L_B_A_OR3X1H7L_A
*362 dpath\.a_lt_b$in0_10__NOR2BX1H7L_B_Z_NOR2X0P5H7L_B_A_OR3X1H7L_A_C_XOR2X0P5H7L_Y
*363 dpath\.a_lt_b$in0_10__NOR2BX1H7L_B_Z_NOR2X0P5H7L_B_Y_AOI21X0P5H7L_A1
*364 dpath\.a_lt_b$in0_10__NOR2BX1H7L_B_Z_NOR2X0P5H7L_B_Y_AOI21X0P5H7L_A1_B0_NAND2X0P5H7L_Y
*365 dpath\.a_lt_b$in0_10__NOR2BX1H7L_B_Z_NOR2X0P5H7L_B_Y_AOI21X0P5H7L_A1_Y_XNOR2X0P5H7L_B
*366 dpath\.a_lt_b$in0_10__reg_p
*367 dpath\.a_lt_b$in0_11__reg_p
*368 dpath\.a_lt_b$in0_12__INVX0P5H7L_A
*369 dpath\.a_lt_b$in0_12__NAND2BX0P5H7L_B
*370 dpath\.a_lt_b$in0_12__NAND2BX0P5H7L_B_Y_NAND2X0P5H7L_A
*371 dpath\.a_lt_b$in0_12__NAND2BX0P5H7L_B_Y_NAND2X0P5H7L_A_B_NAND2X0P5H7L_Y
*372 dpath\.a_lt_b$in0_12__NAND2BX0P5H7L_B_Y_NAND4X0P5H7L_A
*373 dpath\.a_lt_b$in0_12__NAND2BX0P5H7L_B_Y_NAND4X0P5H7L_A_C_NAND2X0P5H7L_Y
*374 dpath\.a_lt_b$in0_12__NAND2BX0P5H7L_B_Y_NAND4X0P5H7L_A_C_NAND2X0P5H7L_Y_B_NOR2X0P5H7L_Y
*375 dpath\.a_lt_b$in0_12__NAND2BX0P5H7L_B_Y_NAND4X0P5H7L_A_D_NAND2X0P5H7L_Y
*376 dpath\.a_lt_b$in0_12__NAND2BX0P5H7L_B_Y_NAND4X0P5H7L_A_D_NAND2X0P5H7L_Y_B_NOR2X0P5H7L_Y
*377 dpath\.a_lt_b$in0_12__reg_p
*378 dpath\.a_lt_b$in0_13__NAND2BX0P5H7L_B
*379 dpath\.a_lt_b$in0_13__NAND2BX0P5H7L_B_Y_AND2X1H7L_A
*380 dpath\.a_lt_b$in0_13__NAND2BX0P5H7L_B_Y_AND2X1H7L_A_Y_AOI21X0P5H7L_A0
*381 dpath\.a_lt_b$in0_13__NAND2BX0P5H7L_B_Y_NAND2BX0P5H7L_B
*382 dpath\.a_lt_b$in0_13__NAND2BX0P5H7L_B_Y_NAND2BX0P5H7L_B_Y_NOR4BX4H7L_B
*383 dpath\.a_lt_b$in0_13__NAND2BX0P5H7L_B_Y_NAND2BX0P5H7L_B_Y_XNOR2X0P5H7L_A
*384 dpath\.a_lt_b$in0_13__NOR2BX1H7L_B
*385 dpath\.a_lt_b$in0_13__reg_p
*386 dpath\.a_lt_b$in0_14__reg_p
*387 dpath\.a_lt_b$in0_15__INVX0P5H7L_A
*388 dpath\.a_lt_b$in0_15__NOR2BX1H7L_B
*389 dpath\.a_lt_b$in0_15__NOR2BX1H7L_B_Z_NOR2X0P5H7L_A
*390 dpath\.a_lt_b$in0_15__NOR2BX1H7L_B_Z_NOR2X0P5H7L_A_B_NOR3X0P5H7L_Y
*391 dpath\.a_lt_b$in0_15__NOR2BX1H7L_B_Z_NOR2X0P5H7L_A_Y_AOAI211X4H7L_C0
*392 dpath\.a_lt_b$in0_15__NOR2BX1H7L_B_Z_NOR2X0P5H7L_A_Y_AOAI211X4H7L_C0_A0_AOAI211X0P5H7L_Y
*393 dpath\.a_lt_b$in0_15__NOR2BX1H7L_B_Z_NOR2X0P5H7L_A_Y_AOAI211X4H7L_C0_A0_AOAI211X0P5H7L_Y_C0_NOR2X0P5H7L_Y
*394 dpath\.a_lt_b$in0_15__NOR2BX1H7L_B_Z_NOR2X0P5H7L_A_Y_AOAI211X4H7L_C0_A1_AOAI211X0P7H7L_Y
*395 dpath\.a_lt_b$in0_15__NOR2BX1H7L_B_Z_NOR2X0P5H7L_A_Y_AOAI211X4H7L_C0_A1_AOAI211X0P7H7L_Y_C0_NOR2X0P5H7L_Y
*396 dpath\.a_lt_b$in0_15__NOR2BX1H7L_B_Z_NOR2X0P5H7L_A_Y_AOAI211X4H7L_C0_Y_BUFX12H7L_A
*397 dpath\.a_lt_b$in0_15__NOR2BX1H7L_B_Z_NOR2X0P5H7L_B
*398 dpath\.a_lt_b$in0_15__NOR2BX1H7L_B_Z_NOR2X0P5H7L_B_Y_XOR2X1P4H7L_B
*399 dpath\.a_lt_b$in0_15__NOR2BX1H7L_B_Z_NOR2X0P5H7L_B_Y_XOR2X1P4H7L_B_A_NAND2X0P7H7L_Y
*400 dpath\.a_lt_b$in0_15__reg_p
*401 dpath\.a_lt_b$in0_1__NAND2BX1H7L_B
*402 dpath\.a_lt_b$in0_1__NOR2BX1H7L_B
*403 dpath\.a_lt_b$in0_1__NOR2BX1H7L_B_Z_AOI21X0P5H7L_B0
*404 dpath\.a_lt_b$in0_1__NOR2BX1H7L_B_Z_AOI21X0P5H7L_B0_A1_NOR2BX1P4H7L_Z
*405 dpath\.a_lt_b$in0_1__NOR2BX1H7L_B_Z_NOR2BX1H7L_B
*406 dpath\.a_lt_b$in0_1__NOR2BX1H7L_B_Z_NOR2BX1H7L_B_Z_XNOR2X0P5H7L_B
*407 dpath\.a_lt_b$in0_1__reg_p
*408 dpath\.a_lt_b$in0_2__reg_p
*409 dpath\.a_lt_b$in0_3__NOR2BX1H7L_AN
*410 dpath\.a_lt_b$in0_3__NOR2BX1H7L_AN_Z_AO21X1H7L_B0
*411 dpath\.a_lt_b$in0_3__NOR2BX1H7L_AN_Z_AO21X1H7L_B0_A1_AOAI211X1P4H7L_Y
*412 dpath\.a_lt_b$in0_3__NOR2BX1H7L_AN_Z_AO21X1H7L_B0_Y_AOI21X0P5H7L_A1
*413 dpath\.a_lt_b$in0_3__NOR2BX1H7L_AN_Z_AO21X1H7L_B0_Y_AOI21X0P5H7L_A1_B0_AOI2BB1X0P5H7L_Y
*414 dpath\.a_lt_b$in0_3__NOR2BX1H7L_B
*415 dpath\.a_lt_b$in0_3__NOR2BX1H7L_B_Z_NOR2X0P5H7L_B
*416 dpath\.a_lt_b$in0_3__NOR2BX1H7L_B_Z_NOR2X0P5H7L_B_Y_XNOR2X0P5H7L_B
*417 dpath\.a_lt_b$in0_3__NOR2BX1H7L_B_Z_NOR2X0P5H7L_B_Y_XNOR2X0P5H7L_B_A_OAI21X0P5H7L_Y
*418 dpath\.a_lt_b$in0_3__NOR2BX1H7L_B_Z_NOR2X0P5H7L_B_Y_XNOR2X0P5H7L_B_A_OAI21X0P5H7L_Y_B0_OAI2BB1X0P5H7L_Y
*419 dpath\.a_lt_b$in0_3__NOR2BX1H7L_B_Z_NOR2X1H7L_A
*420 dpath\.a_lt_b$in0_3__NOR2BX1H7L_B_Z_NOR2X1H7L_A_B_NAND2BX0P5H7L_AN
*421 dpath\.a_lt_b$in0_3__NOR2BX1H7L_B_Z_NOR2X1H7L_A_B_NAND2BX0P5H7L_AN_B_NAND2BX0P5H7L_Y
*422 dpath\.a_lt_b$in0_3__NOR2BX1H7L_B_Z_NOR2X1H7L_A_B_NAND2BX0P5H7L_AN_Y_XNOR2X0P5H7L_B
*423 dpath\.a_lt_b$in0_3__NOR2BX1H7L_B_Z_NOR2X1H7L_A_B_NOR2BX1H7L_Z
*424 dpath\.a_lt_b$in0_3__NOR2BX1H7L_B_Z_NOR2X1H7L_A_Y_AOAI211X3H7L_A0
*425 dpath\.a_lt_b$in0_3__NOR2BX1H7L_B_Z_NOR2X1H7L_A_Y_AOAI211X3H7L_A0_Y_NAND2X0P5H7L_A
*426 dpath\.a_lt_b$in0_3__NOR2BX1H7L_B_Z_NOR2X1H7L_A_Y_AOAI211X3H7L_A0_Y_OAOI211X4H7L_B0
*427 dpath\.a_lt_b$in0_3__NOR2BX1H7L_B_Z_NOR2X1H7L_A_Y_AOAI211X3H7L_A0_Y_OAOI211X4H7L_B0_A0_NOR2BX1H7L_Z
*428 dpath\.a_lt_b$in0_3__NOR2BX1H7L_B_Z_NOR2X1H7L_A_Y_AOAI211X3H7L_A0_Y_OAOI211X4H7L_B0_A0_NOR2BX1H7L_Z_B_NAND2BX0P5H7L_Y
*429 dpath\.a_lt_b$in0_3__NOR2BX1H7L_B_Z_NOR2X1H7L_A_Y_AOAI211X3H7L_A0_Y_OAOI211X4H7L_B0_A1_AND3X6H7L_Y
*430 dpath\.a_lt_b$in0_3__reg_p
*431 dpath\.a_lt_b$in0_4__reg_p
*432 dpath\.a_lt_b$in0_5__NAND2BX1H7L_AN
*433 dpath\.a_lt_b$in0_5__NAND2BX1H7L_AN_Y_AND3X8H7L_A
*434 dpath\.a_lt_b$in0_5__NAND2BX1H7L_AN_Y_AND3X8H7L_A_C_XNOR2X3H7L_Y
*435 dpath\.a_lt_b$in0_5__NAND2BX1H7L_AN_Y_AND3X8H7L_A_C_XOR2X0P5H7L_A
*436 dpath\.a_lt_b$in0_5__NAND2BX1H7L_AN_Y_NAND2X0P5H7L_A
*437 dpath\.a_lt_b$in0_5__NAND2BX1H7L_AN_Y_NAND2X0P5H7L_A_Y_XOR2X0P5H7L_A
*438 dpath\.a_lt_b$in0_5__NAND2BX1H7L_AN_Y_OAI2BB1X3H7L_B0
*439 dpath\.a_lt_b$in0_5__NAND2BX1H7L_AN_Y_OAI2BB1X3H7L_B0_A1N_NAND2BX0P5H7L_Y
*440 dpath\.a_lt_b$in0_5__NAND2BX1P4H7L_B
*441 dpath\.a_lt_b$in0_5__reg_p
*442 dpath\.a_lt_b$in0_6__NAND2BX0P5H7L_B
*443 dpath\.a_lt_b$in0_6__NAND2BX1H7L_AN
*444 dpath\.a_lt_b$in0_6__NAND2BX1H7L_AN_Y_AOI21X0P5H7L_B0
*445 dpath\.a_lt_b$in0_6__NAND2BX1H7L_AN_Y_AOI21X0P5H7L_B0_A0_INVX0P5H7L_Y
*446 dpath\.a_lt_b$in0_6__NAND2BX1H7L_AN_Y_AOI21X0P5H7L_B0_Y_OAI21BX0P5H7L_B0N
*447 dpath\.a_lt_b$in0_6__NAND2BX1H7L_AN_Y_NAND2X0P5H7L_B
*448 dpath\.a_lt_b$in0_6__NAND2BX1H7L_AN_Y_NAND2X0P5H7L_B_Y_XNOR2X0P5H7L_B
*449 dpath\.a_lt_b$in0_6__NAND2BX1H7L_AN_Y_OAI2XB1X0P5H7L_B0
*450 dpath\.a_lt_b$in0_6__NAND2BX1H7L_AN_Y_OAI2XB1X0P5H7L_B0_Y_XNOR2X0P5H7L_A
*451 dpath\.a_lt_b$in0_6__NAND2BX1H7L_AN_Y_OAI2XB1X0P5H7L_B0_Y_XNOR2X0P5H7L_A_B_XNOR2X0P5H7L_Y
*452 dpath\.a_lt_b$in0_6__reg_p
*453 dpath\.a_lt_b$in0_7__reg_p
*454 dpath\.a_lt_b$in0_8__NAND2X0P5H7L_A
*455 dpath\.a_lt_b$in0_8__NOR2X0P5H7L_A
*456 dpath\.a_lt_b$in0_8__reg_p
*457 dpath\.a_lt_b$in0_9__NAND2BX1P4H7L_B
*458 dpath\.a_lt_b$in0_9__NOR2BX1P4H7L_B
*459 dpath\.a_lt_b$in0_9__reg_p
*460 dpath\.a_lt_b$in1_0__reg_p
*461 dpath\.a_lt_b$in1_10__reg_p
*462 dpath\.a_lt_b$in1_11__reg_p
*463 dpath\.a_lt_b$in1_12__reg_p
*464 dpath\.a_lt_b$in1_13__reg_p
*465 dpath\.a_lt_b$in1_14__INVX0P5H7L_A
*466 dpath\.a_lt_b$in1_14__XNOR2X0P5H7L_A
*467 dpath\.a_lt_b$in1_14__XNOR2X0P5H7L_A_Y_INVX0P5H7L_A
*468 dpath\.a_lt_b$in1_14__reg_p
*469 dpath\.a_lt_b$in1_15__NOR2X0P5H7L_B
*470 dpath\.a_lt_b$in1_15__reg_p
*471 dpath\.a_lt_b$in1_1__reg_p
*472 dpath\.a_lt_b$in1_2__reg_p
*473 dpath\.a_lt_b$in1_3__reg_p
*474 dpath\.a_lt_b$in1_4__reg_p
*475 dpath\.a_lt_b$in1_5__reg_p
*476 dpath\.a_lt_b$in1_6__reg_p
*477 dpath\.a_lt_b$in1_7__reg_p
*478 dpath\.a_lt_b$in1_8__AOI21X0P5H7L_A0
*479 dpath\.a_lt_b$in1_8__AOI21X0P5H7L_A0_Y_XNOR2X0P5H7L_B
*480 dpath\.a_lt_b$in1_8__AOI21X0P5H7L_A0_Y_XNOR2X0P5H7L_B_A_NAND2BX0P5H7L_Y
*481 dpath\.a_lt_b$in1_8__reg_p
*482 dpath\.a_lt_b$in1_9__reg_p
*483 dpath\.a_mux$out_0__AOAI211X1P4H7L_Y
*484 dpath\.a_mux$out_0__AOAI211X1P4H7L_Y_A0_OAI21X1H7L_Y
*485 dpath\.a_mux$out_0__AOAI211X1P4H7L_Y_A1_OR3X1P4H7L_Y
*486 dpath\.a_mux$out_0__AOAI211X1P4H7L_Y_A1_OR3X1P4H7L_Y_B_INVX0P5H7L_Y
*487 dpath\.a_mux$out_0__AOAI211X1P4H7L_Y_C0_NAND2X0P5H7L_Y
*488 dpath\.a_mux$out_10__MUX2X1P4H7L_Y
*489 dpath\.a_mux$out_10__MUX2X1P4H7L_Y_B_MUX2X3H7L_Y
*490 dpath\.a_mux$out_11__AOAI211X2H7L_Y
*491 dpath\.a_mux$out_11__AOAI211X2H7L_Y_A0_OAI21X1H7L_Y
*492 dpath\.a_mux$out_11__AOAI211X2H7L_Y_A1_OR3X1P4H7L_Y
*493 dpath\.a_mux$out_11__AOAI211X2H7L_Y_A1_OR3X1P4H7L_Y_C_XNOR2X0P5H7L_B
*494 dpath\.a_mux$out_11__AOAI211X2H7L_Y_C0_NAND2X0P5H7L_Y
*495 dpath\.a_mux$out_12__MUX2X1P4H7L_Y
*496 dpath\.a_mux$out_12__MUX2X1P4H7L_Y_B_MUX2X3H7L_Y
*497 dpath\.a_mux$out_13__OAI2XB1X1P4H7L_Y
*498 dpath\.a_mux$out_13__OAI2XB1X1P4H7L_Y_B0_AOI31X1P4H7L_Y
*499 dpath\.a_mux$out_13__OAI2XB1X1P4H7L_Y_B0_AOI31X1P4H7L_Y_B0_NOR2BX1H7L_Z
*500 dpath\.a_mux$out_14__NAND2BX0P7H7L_Y
*501 dpath\.a_mux$out_14__NAND2BX0P7H7L_Y_AN_AOI211X1P4H7L_Y
*502 dpath\.a_mux$out_14__NAND2BX0P7H7L_Y_AN_AOI211X1P4H7L_Y_A0_NAND2X0P5H7L_A
*503 dpath\.a_mux$out_14__NAND2BX0P7H7L_Y_AN_AOI211X1P4H7L_Y_A0_OAI21X0P5H7L_Y
*504 dpath\.a_mux$out_14__NAND2BX0P7H7L_Y_AN_AOI211X1P4H7L_Y_A1_OR3X1H7L_Y
*505 dpath\.a_mux$out_14__NAND2BX0P7H7L_Y_B_AOI22X0P5H7L_Y
*506 dpath\.a_mux$out_14__NAND2BX0P7H7L_Y_B_AOI22X0P5H7L_Y_B0_NOR2X0P5H7L_Y
*507 dpath\.a_mux$out_15__AOAI211X1P4H7L_Y
*508 dpath\.a_mux$out_15__AOAI211X1P4H7L_Y_A0_AOAI211X0P5H7L_Y
*509 dpath\.a_mux$out_15__AOAI211X1P4H7L_Y_A1_AO211X0P7H7L_Y
*510 dpath\.a_mux$out_15__AOAI211X1P4H7L_Y_A1_AO211X0P7H7L_Y_A0_OAI31X1H7L_Y
*511 dpath\.a_mux$out_15__AOAI211X1P4H7L_Y_A1_AO211X0P7H7L_Y_A1_OAI21X0P5H7L_Y
*512 dpath\.a_mux$out_15__AOAI211X1P4H7L_Y_C0_NAND2X0P5H7L_Y
*513 dpath\.a_mux$out_1__MUX2X1P4H7L_Y
*514 dpath\.a_mux$out_1__MUX2X1P4H7L_Y_B_MUX2X3H7L_Y
*515 dpath\.a_mux$out_2__MUX2X1P4H7L_Y
*516 dpath\.a_mux$out_2__MUX2X1P4H7L_Y_B_MUX2X3H7L_Y
*517 dpath\.a_mux$out_3__OAI211X1P4H7L_Y
*518 dpath\.a_mux$out_3__OAI211X1P4H7L_Y_A1_NAND2X0P5H7L_Y
*519 dpath\.a_mux$out_3__OAI211X1P4H7L_Y_B0_NAND3X0P5H7L_Y
*520 dpath\.a_mux$out_3__OAI211X1P4H7L_Y_C0_NAND2X0P5H7L_Y
*521 dpath\.a_mux$out_4__OAI211X1P4H7L_Y
*522 dpath\.a_mux$out_4__OAI211X1P4H7L_Y_A1_NAND2X0P5H7L_Y
*523 dpath\.a_mux$out_4__OAI211X1P4H7L_Y_B0_NAND3X0P5H7L_Y
*524 dpath\.a_mux$out_4__OAI211X1P4H7L_Y_C0_NAND2X0P5H7L_Y
*525 dpath\.a_mux$out_5__MUX2X1P4H7L_Y
*526 dpath\.a_mux$out_5__MUX2X1P4H7L_Y_B_MUX2X3H7L_Y
*527 dpath\.a_mux$out_6__MUX2X1P4H7L_Y
*528 dpath\.a_mux$out_6__MUX2X1P4H7L_Y_B_MUX2X3H7L_Y
*529 dpath\.a_mux$out_7__OAI211X1P4H7L_Y
*530 dpath\.a_mux$out_7__OAI211X1P4H7L_Y_A1_NAND2X0P5H7L_Y
*531 dpath\.a_mux$out_7__OAI211X1P4H7L_Y_B0_NAND3X0P5H7L_Y
*532 dpath\.a_mux$out_7__OAI211X1P4H7L_Y_C0_NAND2X0P5H7L_Y
*533 dpath\.a_mux$out_8__OAI211X1P4H7L_Y
*534 dpath\.a_mux$out_8__OAI211X1P4H7L_Y_A1_NAND2X0P5H7L_Y
*535 dpath\.a_mux$out_8__OAI211X1P4H7L_Y_B0_NAND3X0P5H7L_Y
*536 dpath\.a_mux$out_8__OAI211X1P4H7L_Y_C0_NAND2X0P5H7L_Y
*537 dpath\.a_mux$out_9__OAI2XB1X1P4H7L_Y
*538 dpath\.a_mux$out_9__OAI2XB1X1P4H7L_Y_A0_NAND2BX0P7H7L_Y
*539 dpath\.a_mux$out_9__OAI2XB1X1P4H7L_Y_B0_AOI31X1H7L_Y
*540 dpath\.a_mux$out_9__OAI2XB1X1P4H7L_Y_B0_AOI31X1H7L_Y_B0_NOR2BX1H7L_Z
*541 dpath\.b_mux$out_0__MUX2X0P5H7L_Y
*542 dpath\.b_mux$out_10__MUX2X0P5H7L_Y
*543 dpath\.b_mux$out_11__OAI21X0P5H7L_Y
*544 dpath\.b_mux$out_11__OAI21X0P5H7L_Y_A1_AO31X1P4H7L_A0
*545 dpath\.b_mux$out_11__OAI21X0P5H7L_Y_A1_AO31X1P4H7L_A0_Y_AND2X1H7L_B
*546 dpath\.b_mux$out_11__OAI21X0P5H7L_Y_A1_AO31X1P4H7L_A0_Y_AND2X1H7L_B_A_OAI2BB1X0P7H7L_Y
*547 dpath\.b_mux$out_11__OAI21X0P5H7L_Y_A1_AO31X1P4H7L_A0_Y_AND2X1H7L_B_Y_OAI2XB1X0P5H7L_B0
*548 dpath\.b_mux$out_11__OAI21X0P5H7L_Y_A1_AO31X1P4H7L_A0_Y_AND2X1H7L_B_Y_OAI2XB1X0P5H7L_B0_Y_XNOR2X0P5H7L_B
*549 dpath\.b_mux$out_11__OAI21X0P5H7L_Y_A1_AO31X1P4H7L_A0_Y_AO22X1P4H7L_B1
*550 dpath\.b_mux$out_11__OAI21X0P5H7L_Y_A1_INVX0P5H7L_Y
*551 dpath\.b_mux$out_11__OAI21X0P5H7L_Y_B0_NAND2X0P5H7L_Y
*552 dpath\.b_mux$out_12__OAI21X0P5H7L_Y
*553 dpath\.b_mux$out_12__OAI21X0P5H7L_Y_B0_NAND2X0P5H7L_Y
*554 dpath\.b_mux$out_13__MUX2X0P5H7L_Y
*555 dpath\.b_mux$out_14__MUX2X0P5H7L_Y
*556 dpath\.b_mux$out_15__OAI21X0P5H7L_Y
*557 dpath\.b_mux$out_15__OAI21X0P5H7L_Y_B0_NAND2X0P5H7L_Y
*558 dpath\.b_mux$out_1__MUX2X0P5H7L_Y
*559 dpath\.b_mux$out_2__MUX2X0P5H7L_Y
*560 dpath\.b_mux$out_3__MUX2X0P5H7L_Y
*561 dpath\.b_mux$out_4__MUX2X0P5H7L_Y
*562 dpath\.b_mux$out_5__MUX2X0P5H7L_Y
*563 dpath\.b_mux$out_6__MUX2X0P5H7L_Y
*564 dpath\.b_mux$out_7__MUX2X0P5H7L_Y
*565 dpath\.b_mux$out_8__MUX2X0P5H7L_Y
*566 dpath\.b_mux$out_9__MUX2X0P5H7L_Y
*567 req_rdy_BUFX7H7L_A
*568 req_rdy_NAND2BX1H7L_AN
*569 req_rdy_NOR2BX1H7L_B
*570 req_rdy_NOR2BX1H7L_B_Z_BUFX3H7L_A
*571 req_rdy_reg_p
*572 req_val_AOI22X0P5H7L_A1
*573 req_val_AOI22X0P5H7L_A1_B0_NAND4X0P5H7L_Y
*574 req_val_AOI22X0P5H7L_A1_B0_NAND4X0P5H7L_Y_A_NOR4X0P5H7L_Y
*575 req_val_AOI22X0P5H7L_A1_B0_NAND4X0P5H7L_Y_B_NOR4X0P5H7L_Y
*576 req_val_AOI22X0P5H7L_A1_B0_NAND4X0P5H7L_Y_C_NOR4X0P5H7L_Y
*577 req_val_AOI22X0P5H7L_A1_B0_NAND4X0P5H7L_Y_D_NOR4X0P5H7L_Y
*578 req_val_NOR2BX1H7L_B
*579 reset_AOI21X0P5H7L_B0
*580 reset_AOI21X0P5H7L_B0_A1_OAI2XB1X0P5H7L_Y
*581 reset_NOR2X0P5H7L_A
*582 resp_rdy_AO211X1P4H7L_A0
*583 resp_rdy_OAI2XB1X0P5H7L_A1N
*584 resp_val_NOR2BX1P4H7L_Z
*585 ENDCAP_0
*586 ENDCAP_1
*587 ENDCAP_2
*588 ENDCAP_3
*589 ENDCAP_4
*590 ENDCAP_5
*591 ENDCAP_6
*592 ENDCAP_7
*593 ENDCAP_8
*594 ENDCAP_9
*595 ENDCAP_10
*596 ENDCAP_11
*597 ENDCAP_12
*598 ENDCAP_13
*599 ENDCAP_14
*600 ENDCAP_15
*601 ENDCAP_16
*602 ENDCAP_17
*603 ENDCAP_18
*604 ENDCAP_19
*605 ENDCAP_20
*606 ENDCAP_21
*607 ENDCAP_22
*608 ENDCAP_23
*609 ENDCAP_24
*610 ENDCAP_25
*611 ENDCAP_26
*612 ENDCAP_27
*613 ENDCAP_28
*614 ENDCAP_29
*615 ENDCAP_30
*616 ENDCAP_31
*617 ENDCAP_32
*618 ENDCAP_33
*619 ENDCAP_34
*620 ENDCAP_35
*621 ENDCAP_36
*622 ENDCAP_37
*623 ENDCAP_38
*624 ENDCAP_39
*625 ENDCAP_40
*626 ENDCAP_41
*627 ENDCAP_42
*628 ENDCAP_43
*629 ENDCAP_44
*630 ENDCAP_45
*631 ENDCAP_46
*632 ENDCAP_47
*633 ENDCAP_48
*634 ENDCAP_49
*635 ENDCAP_50
*636 ENDCAP_51
*637 ENDCAP_52
*638 ENDCAP_53
*639 ENDCAP_54
*640 ENDCAP_55
*641 ENDCAP_56
*642 ENDCAP_57
*643 ENDCAP_58
*644 ENDCAP_59
*645 ENDCAP_60
*646 ENDCAP_61
*647 ENDCAP_62
*648 ENDCAP_63
*649 ENDCAP_64
*650 ENDCAP_65
*651 ENDCAP_66
*652 ENDCAP_67
*653 ENDCAP_68
*654 ENDCAP_69
*655 ENDCAP_70
*656 ENDCAP_71
*657 ENDCAP_72
*658 ENDCAP_73
*659 ENDCAP_74
*660 ENDCAP_75
*661 ENDCAP_76
*662 ENDCAP_77
*663 ENDCAP_78
*664 ENDCAP_79
*665 ENDCAP_80
*666 ENDCAP_81
*667 ENDCAP_82
*668 ENDCAP_83
*669 ENDCAP_84
*670 ENDCAP_85
*671 ENDCAP_86
*672 ENDCAP_87
*673 ENDCAP_88
*674 ENDCAP_89
*675 ENDCAP_90
*676 ENDCAP_91
*677 ENDCAP_92
*678 ENDCAP_93
*679 ENDCAP_94
*680 ENDCAP_95
*681 ENDCAP_96
*682 ENDCAP_97
*683 ENDCAP_98
*684 ENDCAP_99
*685 ENDCAP_100
*686 ENDCAP_101
*687 ENDCAP_102
*688 PHY_0
*689 ENDCAP_103
*690 ENDCAP_104
*691 ENDCAP_105
*692 ENDCAP_106
*693 PHY_1
*694 ENDCAP_107
*695 ENDCAP_108
*696 ENDCAP_109
*697 ENDCAP_110
*698 PHY_2
*699 ENDCAP_111
*700 ENDCAP_112
*701 ENDCAP_113
*702 ENDCAP_114
*703 PHY_3
*704 ENDCAP_115
*705 ENDCAP_116
*706 ENDCAP_117
*707 ENDCAP_118
*708 PHY_4
*709 ENDCAP_119
*710 ENDCAP_120
*711 ENDCAP_121
*712 ENDCAP_122
*713 PHY_5
*714 ENDCAP_123
*715 ENDCAP_124
*716 ENDCAP_125
*717 ENDCAP_126
*718 PHY_6
*719 ENDCAP_127
*720 ENDCAP_128
*721 ENDCAP_129
*722 ENDCAP_130
*723 PHY_7
*724 ENDCAP_131
*725 ENDCAP_132
*726 ENDCAP_133
*727 ENDCAP_134
*728 PHY_8
*729 ENDCAP_135
*730 ENDCAP_136
*731 ENDCAP_137
*732 ENDCAP_138
*733 PHY_9
*734 ENDCAP_139
*735 ENDCAP_140
*736 ENDCAP_141
*737 ENDCAP_142
*738 PHY_10
*739 ENDCAP_143
*740 ENDCAP_144
*741 ENDCAP_145
*742 ENDCAP_146
*743 PHY_11
*744 ENDCAP_147
*745 ENDCAP_148
*746 ENDCAP_149
*747 ENDCAP_150
*748 ENDCAP_151
*749 ENDCAP_152
*750 ENDCAP_153
*751 ENDCAP_154
*752 ENDCAP_155
*753 ENDCAP_156
*754 ENDCAP_157
*755 ENDCAP_158
*756 ENDCAP_159
*757 ENDCAP_160
*758 ENDCAP_161
*759 ENDCAP_162
*760 ENDCAP_163
*761 ENDCAP_164
*762 ENDCAP_165
*763 ENDCAP_166
*764 ENDCAP_167
*765 ENDCAP_168
*766 ENDCAP_169
*767 ENDCAP_170
*768 ENDCAP_171
*769 ENDCAP_172
*770 ENDCAP_173
*771 ENDCAP_174
*772 ENDCAP_175
*773 ENDCAP_176
*774 ENDCAP_177
*775 ENDCAP_178
*776 ENDCAP_179
*777 ENDCAP_180
*778 ENDCAP_181
*779 ENDCAP_182
*780 ENDCAP_183
*781 ENDCAP_184
*782 ENDCAP_185
*783 ENDCAP_186
*784 ENDCAP_187
*785 ENDCAP_188
*786 ENDCAP_189
*787 ENDCAP_190
*788 ENDCAP_191
*789 ENDCAP_192
*790 ENDCAP_193
*791 ENDCAP_194
*792 ENDCAP_195
*793 ENDCAP_196
*794 ENDCAP_197
*795 ENDCAP_198
*796 ENDCAP_199
*797 ENDCAP_200
*798 ENDCAP_201
*799 ENDCAP_202
*800 ENDCAP_203
*801 ENDCAP_204
*802 ENDCAP_205
*803 ENDCAP_206
*804 ENDCAP_207
*805 ENDCAP_208
*806 ENDCAP_209
*807 ENDCAP_210
*808 ENDCAP_211
*809 ENDCAP_212
*810 ENDCAP_213
*811 ENDCAP_214
*812 ENDCAP_215
*813 ENDCAP_216
*814 ENDCAP_217
*815 ENDCAP_218
*816 ENDCAP_219
*817 ENDCAP_220
*818 ENDCAP_221
*819 ENDCAP_222
*820 ENDCAP_223
*821 ENDCAP_224
*822 ENDCAP_225
*823 ENDCAP_226
*824 ENDCAP_227
*825 ENDCAP_228
*826 ENDCAP_229
*827 ENDCAP_230
*828 ENDCAP_231
*829 ENDCAP_232
*830 ENDCAP_233
*831 ENDCAP_234
*832 ENDCAP_235
*833 ENDCAP_236
*834 ENDCAP_237
*835 ENDCAP_238
*836 ENDCAP_239
*837 ENDCAP_240
*838 ENDCAP_241
*839 ENDCAP_242
*840 ENDCAP_243
*841 ENDCAP_244
*842 ENDCAP_245
*843 ENDCAP_246
*844 ENDCAP_247
*845 cts_flow_clk_0_clk_regular_root_buf
*846 cts_flow_clk_0_clk_regular_cluster_buf_0
*1 clk
*2 req_msg_0_
*3 req_msg_1_
*4 req_msg_2_
*5 req_msg_3_
*6 req_msg_4_
*7 req_msg_5_
*8 req_msg_6_
*9 req_msg_7_
*10 req_msg_8_
*11 req_msg_9_
*12 req_msg_10_
*13 req_msg_11_
*14 req_msg_12_
*15 req_msg_13_
*16 req_msg_14_
*17 req_msg_15_
*18 req_msg_16_
*19 req_msg_17_
*20 req_msg_18_
*21 req_msg_19_
*22 req_msg_20_
*23 req_msg_21_
*24 req_msg_22_
*25 req_msg_23_
*26 req_msg_24_
*27 req_msg_25_
*28 req_msg_26_
*29 req_msg_27_
*30 req_msg_28_
*31 req_msg_29_
*32 req_msg_30_
*33 req_msg_31_
*34 req_rdy
*35 req_val
*36 reset
*37 resp_msg_0_
*38 resp_msg_1_
*39 resp_msg_2_
*40 resp_msg_3_
*41 resp_msg_4_
*42 resp_msg_5_
*43 resp_msg_6_
*44 resp_msg_7_
*45 resp_msg_8_
*46 resp_msg_9_
*47 resp_msg_10_
*48 resp_msg_11_
*49 resp_msg_12_
*50 resp_msg_13_
*51 resp_msg_14_
*52 resp_msg_15_
*53 resp_rdy
*54 resp_val
*55 ctrl$a_reg_en_0_
*56 ctrl$b_reg_en_0_
*57 ctrl$b_reg_en_0__AO21X1H7L_Y_A1
*58 ctrl\.state\.out_1_
*59 ctrl\.state\.out_1__reg_p_D
*60 ctrl\.state\.out_2_
*61 ctrl\.state\.out_2__reg_p_D
*62 dpath\.a_lt_b$in0_0_
*63 dpath\.a_lt_b$in0_0__reg_p_CK
*64 dpath\.a_lt_b$in0_10_
*65 dpath\.a_lt_b$in0_10__NAND2BX0P5H7L_B_Y
*66 dpath\.a_lt_b$in0_10__NOR2BX1H7L_B_Z
*67 dpath\.a_lt_b$in0_10__NOR2BX1H7L_B_Z_AO211X1P4H7L_B0_A1
*68 dpath\.a_lt_b$in0_10__NOR2BX1H7L_B_Z_AO211X1P4H7L_B0_A1_OAI21X0P5H7L_A1_Y
*69 dpath\.a_lt_b$in0_10__NOR2BX1H7L_B_Z_NAND2BX0P5H7L_AN_Y
*70 dpath\.a_lt_b$in0_10__NOR2BX1H7L_B_Z_NAND2BX0P5H7L_AN_Y_XOR2X0P5H7L_A_B
*71 dpath\.a_lt_b$in0_10__NOR2BX1H7L_B_Z_NAND2BX0P5H7L_AN_Y_XOR2X0P5H7L_A_B_OAOI211X0P5H7L_Y_A0
*72 dpath\.a_lt_b$in0_10__NOR2BX1H7L_B_Z_NAND2BX0P5H7L_AN_Y_XOR2X0P5H7L_A_B_OAOI211X0P5H7L_Y_A1
*73 dpath\.a_lt_b$in0_10__NOR2BX1H7L_B_Z_NOR2X0P5H7L_B_A
*74 dpath\.a_lt_b$in0_10__NOR2BX1H7L_B_Z_NOR2X0P5H7L_B_A_NAND3BBX0P5H7L_Y_BN
*75 dpath\.a_lt_b$in0_10__NOR2BX1H7L_B_Z_NOR2X0P5H7L_B_A_OR3X1H7L_A_C
*76 dpath\.a_lt_b$in0_10__NOR2BX1H7L_B_Z_NOR2X0P5H7L_B_A_OR3X1H7L_A_Y
*77 dpath\.a_lt_b$in0_10__NOR2BX1H7L_B_Z_NOR2X0P5H7L_B_Y
*78 dpath\.a_lt_b$in0_10__NOR2BX1H7L_B_Z_NOR2X0P5H7L_B_Y_AOI21X0P5H7L_A1_B0
*79 dpath\.a_lt_b$in0_10__NOR2BX1H7L_B_Z_NOR2X0P5H7L_B_Y_AOI21X0P5H7L_A1_Y
*80 dpath\.a_lt_b$in0_11_
*81 dpath\.a_lt_b$in0_12_
*82 dpath\.a_lt_b$in0_12__INVX0P5H7L_A_Y
*83 dpath\.a_lt_b$in0_12__NAND2BX0P5H7L_B_Y
*84 dpath\.a_lt_b$in0_12__NAND2BX0P5H7L_B_Y_NAND2X0P5H7L_A_B
*85 dpath\.a_lt_b$in0_12__NAND2BX0P5H7L_B_Y_NAND2X0P5H7L_A_Y
*86 dpath\.a_lt_b$in0_12__NAND2BX0P5H7L_B_Y_NAND4X0P5H7L_A_B
*87 dpath\.a_lt_b$in0_12__NAND2BX0P5H7L_B_Y_NAND4X0P5H7L_A_C
*88 dpath\.a_lt_b$in0_12__NAND2BX0P5H7L_B_Y_NAND4X0P5H7L_A_C_NAND2X0P5H7L_Y_B
*89 dpath\.a_lt_b$in0_12__NAND2BX0P5H7L_B_Y_NAND4X0P5H7L_A_D
*90 dpath\.a_lt_b$in0_12__NAND2BX0P5H7L_B_Y_NAND4X0P5H7L_A_D_NAND2X0P5H7L_Y_B
*91 dpath\.a_lt_b$in0_12__NAND2BX0P5H7L_B_Y_NAND4X0P5H7L_A_Y
*92 dpath\.a_lt_b$in0_13_
*93 dpath\.a_lt_b$in0_13__NAND2BX0P5H7L_B_Y
*94 dpath\.a_lt_b$in0_13__NAND2BX0P5H7L_B_Y_AND2X1H7L_A_Y
*95 dpath\.a_lt_b$in0_13__NAND2BX0P5H7L_B_Y_AND2X1H7L_A_Y_AOI21X0P5H7L_A0_Y
*96 dpath\.a_lt_b$in0_13__NAND2BX0P5H7L_B_Y_NAND2BX0P5H7L_B_Y
*97 dpath\.a_lt_b$in0_13__NOR2BX1H7L_B_Z
*98 dpath\.a_lt_b$in0_14_
*99 dpath\.a_lt_b$in0_15_
*100 dpath\.a_lt_b$in0_15__INVX0P5H7L_A_Y
*101 dpath\.a_lt_b$in0_15__NOR2BX1H7L_B_Z
*102 dpath\.a_lt_b$in0_15__NOR2BX1H7L_B_Z_NOR2X0P5H7L_A_B
*103 dpath\.a_lt_b$in0_15__NOR2BX1H7L_B_Z_NOR2X0P5H7L_A_Y
*104 dpath\.a_lt_b$in0_15__NOR2BX1H7L_B_Z_NOR2X0P5H7L_A_Y_AOAI211X4H7L_C0_A0
*105 dpath\.a_lt_b$in0_15__NOR2BX1H7L_B_Z_NOR2X0P5H7L_A_Y_AOAI211X4H7L_C0_A0_AOAI211X0P5H7L_Y_C0
*106 dpath\.a_lt_b$in0_15__NOR2BX1H7L_B_Z_NOR2X0P5H7L_A_Y_AOAI211X4H7L_C0_A1
*107 dpath\.a_lt_b$in0_15__NOR2BX1H7L_B_Z_NOR2X0P5H7L_A_Y_AOAI211X4H7L_C0_A1_AOAI211X0P7H7L_Y_C0
*108 dpath\.a_lt_b$in0_15__NOR2BX1H7L_B_Z_NOR2X0P5H7L_A_Y_AOAI211X4H7L_C0_B0
*109 dpath\.a_lt_b$in0_15__NOR2BX1H7L_B_Z_NOR2X0P5H7L_A_Y_AOAI211X4H7L_C0_Y
*110 dpath\.a_lt_b$in0_15__NOR2BX1H7L_B_Z_NOR2X0P5H7L_B_A
*111 dpath\.a_lt_b$in0_15__NOR2BX1H7L_B_Z_NOR2X0P5H7L_B_Y
*112 dpath\.a_lt_b$in0_15__NOR2BX1H7L_B_Z_NOR2X0P5H7L_B_Y_XOR2X1P4H7L_B_A
*113 dpath\.a_lt_b$in0_1_
*114 dpath\.a_lt_b$in0_1__NAND2BX1H7L_B_Y
*115 dpath\.a_lt_b$in0_1__NOR2BX1H7L_B_Z
*116 dpath\.a_lt_b$in0_1__NOR2BX1H7L_B_Z_AOI21X0P5H7L_B0_A1
*117 dpath\.a_lt_b$in0_1__NOR2BX1H7L_B_Z_AOI21X0P5H7L_B0_Y
*118 dpath\.a_lt_b$in0_1__NOR2BX1H7L_B_Z_NOR2BX1H7L_B_Z
*119 dpath\.a_lt_b$in0_2_
*120 dpath\.a_lt_b$in0_3_
*121 dpath\.a_lt_b$in0_3__NOR2BX1H7L_AN_Z
*122 dpath\.a_lt_b$in0_3__NOR2BX1H7L_AN_Z_AO21X1H7L_B0_A1
*123 dpath\.a_lt_b$in0_3__NOR2BX1H7L_AN_Z_AO21X1H7L_B0_Y
*124 dpath\.a_lt_b$in0_3__NOR2BX1H7L_AN_Z_AO21X1H7L_B0_Y_AOI21X0P5H7L_A1_B0
*125 dpath\.a_lt_b$in0_3__NOR2BX1H7L_AN_Z_AO21X1H7L_B0_Y_AOI21X0P5H7L_A1_Y
*126 dpath\.a_lt_b$in0_3__NOR2BX1H7L_B_Z
*127 dpath\.a_lt_b$in0_3__NOR2BX1H7L_B_Z_NOR2X0P5H7L_B_Y
*128 dpath\.a_lt_b$in0_3__NOR2BX1H7L_B_Z_NOR2X0P5H7L_B_Y_XNOR2X0P5H7L_B_A
*129 dpath\.a_lt_b$in0_3__NOR2BX1H7L_B_Z_NOR2X0P5H7L_B_Y_XNOR2X0P5H7L_B_A_OAI21X0P5H7L_Y_B0
*130 dpath\.a_lt_b$in0_3__NOR2BX1H7L_B_Z_NOR2X1H7L_A_B
*131 dpath\.a_lt_b$in0_3__NOR2BX1H7L_B_Z_NOR2X1H7L_A_B_NAND2BX0P5H7L_AN_B
*132 dpath\.a_lt_b$in0_3__NOR2BX1H7L_B_Z_NOR2X1H7L_A_B_NAND2BX0P5H7L_AN_Y
*133 dpath\.a_lt_b$in0_3__NOR2BX1H7L_B_Z_NOR2X1H7L_A_Y
*134 dpath\.a_lt_b$in0_3__NOR2BX1H7L_B_Z_NOR2X1H7L_A_Y_AOAI211X3H7L_A0_Y
*135 dpath\.a_lt_b$in0_3__NOR2BX1H7L_B_Z_NOR2X1H7L_A_Y_AOAI211X3H7L_A0_Y_OAOI211X4H7L_B0_A0
*136 dpath\.a_lt_b$in0_3__NOR2BX1H7L_B_Z_NOR2X1H7L_A_Y_AOAI211X3H7L_A0_Y_OAOI211X4H7L_B0_A0_NOR2BX1H7L_Z_B
*137 dpath\.a_lt_b$in0_3__NOR2BX1H7L_B_Z_NOR2X1H7L_A_Y_AOAI211X3H7L_A0_Y_OAOI211X4H7L_B0_A1
*138 dpath\.a_lt_b$in0_3__NOR2BX1H7L_B_Z_NOR2X1H7L_A_Y_AOAI211X3H7L_A0_Y_OAOI211X4H7L_B0_C0
*139 dpath\.a_lt_b$in0_4_
*140 dpath\.a_lt_b$in0_5_
*141 dpath\.a_lt_b$in0_5__NAND2BX1H7L_AN_Y
*142 dpath\.a_lt_b$in0_5__NAND2BX1H7L_AN_Y_AND3X8H7L_A_C
*143 dpath\.a_lt_b$in0_5__NAND2BX1H7L_AN_Y_AND3X8H7L_A_Y
*144 dpath\.a_lt_b$in0_5__NAND2BX1H7L_AN_Y_NAND2X0P5H7L_A_Y
*145 dpath\.a_lt_b$in0_5__NAND2BX1H7L_AN_Y_OAI2BB1X3H7L_B0_A1N
*146 dpath\.a_lt_b$in0_5__NAND2BX1H7L_AN_Y_OAI2BB1X3H7L_B0_Y
*147 dpath\.a_lt_b$in0_5__NAND2BX1P4H7L_B_Y
*148 dpath\.a_lt_b$in0_6_
*149 dpath\.a_lt_b$in0_6__NAND2BX0P5H7L_B_Y
*150 dpath\.a_lt_b$in0_6__NAND2BX1H7L_AN_Y
*151 dpath\.a_lt_b$in0_6__NAND2BX1H7L_AN_Y_AOI21X0P5H7L_B0_A0
*152 dpath\.a_lt_b$in0_6__NAND2BX1H7L_AN_Y_AOI21X0P5H7L_B0_Y
*153 dpath\.a_lt_b$in0_6__NAND2BX1H7L_AN_Y_NAND2X0P5H7L_B_Y
*154 dpath\.a_lt_b$in0_6__NAND2BX1H7L_AN_Y_OAI2XB1X0P5H7L_B0_A0
*155 dpath\.a_lt_b$in0_6__NAND2BX1H7L_AN_Y_OAI2XB1X0P5H7L_B0_Y
*156 dpath\.a_lt_b$in0_6__NAND2BX1H7L_AN_Y_OAI2XB1X0P5H7L_B0_Y_XNOR2X0P5H7L_A_B
*157 dpath\.a_lt_b$in0_7_
*158 dpath\.a_lt_b$in0_8_
*159 dpath\.a_lt_b$in0_8__NAND2X0P5H7L_A_Y
*160 dpath\.a_lt_b$in0_8__NOR2X0P5H7L_A_B
*161 dpath\.a_lt_b$in0_8__NOR2X0P5H7L_A_Y
*162 dpath\.a_lt_b$in0_9_
*163 dpath\.a_lt_b$in0_9__NAND2BX1P4H7L_B_Y
*164 dpath\.a_lt_b$in0_9__NOR2BX1P4H7L_B_Z
*165 dpath\.a_lt_b$in1_0_
*166 dpath\.a_lt_b$in1_0__reg_p_CK
*167 dpath\.a_lt_b$in1_10_
*168 dpath\.a_lt_b$in1_11_
*169 dpath\.a_lt_b$in1_12_
*170 dpath\.a_lt_b$in1_13_
*171 dpath\.a_lt_b$in1_14_
*172 dpath\.a_lt_b$in1_14__INVX0P5H7L_A_Y
*173 dpath\.a_lt_b$in1_14__XNOR2X0P5H7L_A_Y
*174 dpath\.a_lt_b$in1_15_
*175 dpath\.a_lt_b$in1_1_
*176 dpath\.a_lt_b$in1_2_
*177 dpath\.a_lt_b$in1_3_
*178 dpath\.a_lt_b$in1_4_
*179 dpath\.a_lt_b$in1_5_
*180 dpath\.a_lt_b$in1_6_
*181 dpath\.a_lt_b$in1_7_
*182 dpath\.a_lt_b$in1_8_
*183 dpath\.a_lt_b$in1_8__AOI21X0P5H7L_A0_Y
*184 dpath\.a_lt_b$in1_8__AOI21X0P5H7L_A0_Y_XNOR2X0P5H7L_B_A
*185 dpath\.a_lt_b$in1_9_
*186 dpath\.a_mux$out_0_
*187 dpath\.a_mux$out_0__AOAI211X1P4H7L_Y_A0
*188 dpath\.a_mux$out_0__AOAI211X1P4H7L_Y_A1
*189 dpath\.a_mux$out_0__AOAI211X1P4H7L_Y_A1_OR3X1P4H7L_Y_B
*190 dpath\.a_mux$out_0__AOAI211X1P4H7L_Y_C0
*191 dpath\.a_mux$out_10_
*192 dpath\.a_mux$out_10__MUX2X1P4H7L_Y_B
*193 dpath\.a_mux$out_11_
*194 dpath\.a_mux$out_11__AOAI211X2H7L_Y_A0
*195 dpath\.a_mux$out_11__AOAI211X2H7L_Y_A1
*196 dpath\.a_mux$out_11__AOAI211X2H7L_Y_A1_OR3X1P4H7L_Y_C
*197 dpath\.a_mux$out_11__AOAI211X2H7L_Y_C0
*198 dpath\.a_mux$out_12_
*199 dpath\.a_mux$out_12__MUX2X1P4H7L_Y_B
*200 dpath\.a_mux$out_13_
*201 dpath\.a_mux$out_13__OAI2XB1X1P4H7L_Y_B0
*202 dpath\.a_mux$out_13__OAI2XB1X1P4H7L_Y_B0_AOI31X1P4H7L_Y_B0
*203 dpath\.a_mux$out_14_
*204 dpath\.a_mux$out_14__NAND2BX0P7H7L_Y_AN
*205 dpath\.a_mux$out_14__NAND2BX0P7H7L_Y_AN_AOI211X1P4H7L_Y_A0
*206 dpath\.a_mux$out_14__NAND2BX0P7H7L_Y_AN_AOI211X1P4H7L_Y_A1
*207 dpath\.a_mux$out_14__NAND2BX0P7H7L_Y_AN_AOI211X1P4H7L_Y_A1_OR3X1H7L_Y_C
*208 dpath\.a_mux$out_14__NAND2BX0P7H7L_Y_B
*209 dpath\.a_mux$out_14__NAND2BX0P7H7L_Y_B_AOI22X0P5H7L_Y_B0
*210 dpath\.a_mux$out_15_
*211 dpath\.a_mux$out_15__AOAI211X1P4H7L_Y_A0
*212 dpath\.a_mux$out_15__AOAI211X1P4H7L_Y_A1
*213 dpath\.a_mux$out_15__AOAI211X1P4H7L_Y_A1_AO211X0P7H7L_Y_A0
*214 dpath\.a_mux$out_15__AOAI211X1P4H7L_Y_A1_AO211X0P7H7L_Y_A1
*215 dpath\.a_mux$out_15__AOAI211X1P4H7L_Y_C0
*216 dpath\.a_mux$out_1_
*217 dpath\.a_mux$out_1__MUX2X1P4H7L_Y_B
*218 dpath\.a_mux$out_2_
*219 dpath\.a_mux$out_2__MUX2X1P4H7L_Y_B
*220 dpath\.a_mux$out_3_
*221 dpath\.a_mux$out_3__OAI211X1P4H7L_Y_A1
*222 dpath\.a_mux$out_3__OAI211X1P4H7L_Y_B0
*223 dpath\.a_mux$out_3__OAI211X1P4H7L_Y_C0
*224 dpath\.a_mux$out_4_
*225 dpath\.a_mux$out_4__OAI211X1P4H7L_Y_A1
*226 dpath\.a_mux$out_4__OAI211X1P4H7L_Y_B0
*227 dpath\.a_mux$out_4__OAI211X1P4H7L_Y_C0
*228 dpath\.a_mux$out_5_
*229 dpath\.a_mux$out_5__MUX2X1P4H7L_Y_B
*230 dpath\.a_mux$out_6_
*231 dpath\.a_mux$out_6__MUX2X1P4H7L_Y_B
*232 dpath\.a_mux$out_7_
*233 dpath\.a_mux$out_7__OAI211X1P4H7L_Y_A1
*234 dpath\.a_mux$out_7__OAI211X1P4H7L_Y_B0
*235 dpath\.a_mux$out_7__OAI211X1P4H7L_Y_C0
*236 dpath\.a_mux$out_8_
*237 dpath\.a_mux$out_8__OAI211X1P4H7L_Y_A1
*238 dpath\.a_mux$out_8__OAI211X1P4H7L_Y_B0
*239 dpath\.a_mux$out_8__OAI211X1P4H7L_Y_C0
*240 dpath\.a_mux$out_9_
*241 dpath\.a_mux$out_9__OAI2XB1X1P4H7L_Y_A0
*242 dpath\.a_mux$out_9__OAI2XB1X1P4H7L_Y_B0
*243 dpath\.a_mux$out_9__OAI2XB1X1P4H7L_Y_B0_AOI31X1H7L_Y_B0
*244 dpath\.b_mux$out_0_
*245 dpath\.b_mux$out_10_
*246 dpath\.b_mux$out_11_
*247 dpath\.b_mux$out_11__OAI21X0P5H7L_Y_A1
*248 dpath\.b_mux$out_11__OAI21X0P5H7L_Y_A1_AO31X1P4H7L_A0_A2
*249 dpath\.b_mux$out_11__OAI21X0P5H7L_Y_A1_AO31X1P4H7L_A0_Y
*250 dpath\.b_mux$out_11__OAI21X0P5H7L_Y_A1_AO31X1P4H7L_A0_Y_AND2X1H7L_B_A
*251 dpath\.b_mux$out_11__OAI21X0P5H7L_Y_A1_AO31X1P4H7L_A0_Y_AND2X1H7L_B_Y
*252 dpath\.b_mux$out_11__OAI21X0P5H7L_Y_A1_AO31X1P4H7L_A0_Y_AND2X1H7L_B_Y_OAI2XB1X0P5H7L_B0_Y
*253 dpath\.b_mux$out_11__OAI21X0P5H7L_Y_B0
*254 dpath\.b_mux$out_12_
*255 dpath\.b_mux$out_12__OAI21X0P5H7L_Y_B0
*256 dpath\.b_mux$out_13_
*257 dpath\.b_mux$out_14_
*258 dpath\.b_mux$out_15_
*259 dpath\.b_mux$out_15__OAI21X0P5H7L_Y_B0
*260 dpath\.b_mux$out_1_
*261 dpath\.b_mux$out_2_
*262 dpath\.b_mux$out_3_
*263 dpath\.b_mux$out_4_
*264 dpath\.b_mux$out_5_
*265 dpath\.b_mux$out_6_
*266 dpath\.b_mux$out_7_
*267 dpath\.b_mux$out_8_
*268 dpath\.b_mux$out_9_
*269 req_rdy_BUFX7H7L_A_Y
*270 req_rdy_NAND2BX1H7L_AN_Y
*271 req_rdy_NOR2BX1H7L_B_Z
*272 req_rdy_NOR2BX1H7L_B_Z_BUFX3H7L_A_Y
*273 req_rdy_reg_p_D
*274 req_val_AOI22X0P5H7L_A1_B0
*275 req_val_AOI22X0P5H7L_A1_B0_NAND4X0P5H7L_Y_A
*276 req_val_AOI22X0P5H7L_A1_B0_NAND4X0P5H7L_Y_B
*277 req_val_AOI22X0P5H7L_A1_B0_NAND4X0P5H7L_Y_C
*278 req_val_AOI22X0P5H7L_A1_B0_NAND4X0P5H7L_Y_D
*279 req_val_NOR2BX1H7L_B_Z
*280 reset_AOI21X0P5H7L_B0_A0
*281 reset_AOI21X0P5H7L_B0_A1
*282 reset_NOR2X0P5H7L_A_B
*283 cts_flow_clk_0_clk_regular_downstream_net
*284 cts_flow_clk_0_clk_regular_cluster_sink_net_0

*PORTS

*285 I
*286 I
*287 I
*288 I
*289 I
*290 I
*291 I
*292 I
*293 I
*294 I
*295 I
*296 I
*297 I
*298 I
*299 I
*300 I
*301 I
*302 I
*303 I
*304 I
*305 I
*306 I
*307 I
*308 I
*309 I
*310 I
*311 I
*312 I
*313 I
*314 I
*315 I
*316 I
*317 I
*318 O
*319 I
*320 I
*321 O
*322 O
*323 O
*324 O
*325 O
*326 O
*327 O
*328 O
*329 O
*330 O
*331 O
*332 O
*333 O
*334 O
*335 O
*336 O
*337 I
*338 O

*D_NET *1 2.142033

*CONN
*P *285 I *C 0.500 2.850
*I *845:A I *C 16.229 8.673
*N *1:2 *C 0.500 3.100
*N *1:3 *C 16.300 2.900
*N *1:4 *C 16.300 8.673
*N *1:5 *C 3.700 3.100
*N *1:6 *C 3.700 2.900
*N *1:7 *C 16.300 2.900
*N *1:8 *C 16.300 8.673
*N *1:9 *C 16.229 8.673

*CAP
1 *285 0.010497
2 *1:2 0.111410
3 *1:3 0.325780
4 *1:4 0.325780
5 *1:5 0.109910
6 *1:6 0.622403
7 *1:7 0.613406
8 *1:8 0.011423
9 *1:9 0.011423

*RES
1 *285 *1:2 0.228500
2 *1:3 *1:4 5.276522
3 *1:2 *1:5 2.924800
4 *1:6 *1:5 0.182800
5 *1:6 *1:7 11.516400
6 *1:9 *1:8 0.064894
7 *1:9 *845:A 2.000000
8 *1:3 *1:7 2.000000
9 *1:4 *1:8 2.000000
*END

*D_NET *2 5.035011

*CONN
*P *286 I *C 0.500 5.700
*I *541:B I *C 21.500 18.510
*N *2:1 *C 2.100 18.500
*N *2:2 *C 21.500 18.500
*N *2:3 *C 21.500 18.500
*N *2:4 *C 21.500 18.510
*N *2:6 *C 21.500 18.695
*N *2:7 *C 2.100 5.700
*N *2:8 *C 2.100 18.500
*N *2:10 *C 2.100 5.700
*N *2:11 *C 21.500 18.510

*CAP
1 *2:1 1.499207
2 *2:2 1.499207
3 *2:3 0.010859
4 *2:4 0.010859
5 *541:B 0.014326
6 *2:6 0.014326
7 *2:7 0.942129
8 *2:8 0.942129
9 *286 0.050984
10 *2:10 0.050984

*RES
1 *2:1 *2:2 17.731600
2 *2:3 *2:4 0.009140
3 *541:B *2:6 0.169090
4 *2:7 *2:8 11.699200
5 *286 *2:10 1.462400
6 *2:1 *2:8 2.000000
7 *2:11 *541:B 2.000000
8 *2:4 *2:11 2.000000
9 *2:7 *2:10 2.000000
10 *2:2 *2:3 2.000000
*END

*D_NET *3 3.583754

*CONN
*P *287 I *C 0.515 8.300
*I *558:B I *C 8.100 20.500
*N *3:1 *C 2.300 8.300
*N *3:2 *C 2.300 15.300
*N *3:4 *C 8.100 20.685
*N *3:5 *C 8.500 20.500
*N *3:6 *C 8.100 20.500
*N *3:8 *C 2.300 8.300
*N *3:9 *C 2.300 15.300
*N *3:10 *C 8.500 15.300
*N *3:11 *C 8.500 15.300
*N *3:12 *C 8.500 20.500

*CAP
1 *3:1 0.637916
2 *3:2 0.637916
3 *558:B 0.018664
4 *3:4 0.018664
5 *3:5 0.047386
6 *3:6 0.047386
7 *287 0.074347
8 *3:8 0.074347
9 *3:9 0.524415
10 *3:10 0.524415
11 *3:11 0.489148
12 *3:12 0.489148

*RES
1 *3:1 *3:2 6.398000
2 *558:B *3:4 0.169090
3 *3:6 *3:5 0.365600
4 *287 *3:8 1.631490
5 *3:9 *3:10 5.666800
6 *3:11 *3:12 4.752800
7 *3:11 *3:10 2.000000
8 *3:2 *3:9 2.000000
9 *3:12 *3:5 2.000000
10 *3:1 *3:8 2.000000
11 *3:6 *558:B 2.000000
*END

*D_NET *4 2.722210

*CONN
*P *288 I *C 0.515 11.086
*I *559:B I *C 10.100 20.700
*N *4:2 *C 0.515 11.700
*N *4:3 *C 6.300 11.700
*N *4:5 *C 10.100 20.500
*N *4:6 *C 6.700 20.700
*N *4:7 *C 10.100 20.700
*N *4:8 *C 6.300 11.700
*N *4:9 *C 6.300 17.000
*N *4:10 *C 6.700 17.000
*N *4:11 *C 6.700 20.700

*CAP
1 *288 0.021413
2 *4:2 0.290882
3 *4:3 0.269468
4 *559:B 0.020271
5 *4:5 0.020271
6 *4:6 0.273313
7 *4:7 0.273313
8 *4:8 0.531721
9 *4:9 0.548921
10 *4:10 0.244918
11 *4:11 0.227719

*RES
1 *288 *4:2 0.561196
2 *4:2 *4:3 5.287490
3 *4:5 *559:B 0.182800
4 *4:6 *4:7 3.107600
5 *4:8 *4:9 4.844200
6 *4:9 *4:10 0.365600
7 *4:10 *4:11 3.381800
8 *4:11 *4:6 2.000000
9 *4:7 *559:B 2.000000
10 *4:8 *4:3 2.000000
*END

*D_NET *5 2.909343

*CONN
*P *289 I *C 0.500 13.700
*I *560:B I *C 12.100 20.500
*N *5:1 *C 1.900 13.700
*N *5:2 *C 1.900 21.300
*N *5:3 *C 12.100 21.300
*N *5:6 *C 1.900 13.700
*N *5:7 *C 11.700 21.300
*N *5:8 *C 12.100 21.300
*N *5:9 *C 1.900 21.300
*N *5:10 *C 11.700 21.300
*N *5:11 *C 11.700 21.300

*CAP
1 *5:1 0.683765
2 *5:2 0.683765
3 *5:3 0.048806
4 *560:B 0.048806
5 *289 0.051477
6 *5:6 0.051477
7 *5:7 0.036001
8 *5:8 0.036001
9 *5:9 0.634622
10 *5:10 0.634622

*RES
1 *5:1 *5:2 6.946400
2 *560:B *5:3 0.731200
3 *289 *5:6 1.279600
4 *5:7 *5:8 0.365600
5 *5:9 *5:10 8.957200
6 *5:11 *5:7 2.000000
7 *5:1 *5:6 2.000000
8 *5:10 *5:11 2.000000
9 *5:8 *5:3 2.000000
10 *5:9 *5:2 2.000000
*END

*D_NET *6 2.661319

*CONN
*P *290 I *C 0.500 16.443
*I *561:B I *C 14.100 20.500
*N *6:2 *C 14.100 20.100
*N *6:3 *C 0.500 16.700
*N *6:4 *C 0.500 16.443
*N *6:5 *C 14.100 16.700
*N *6:6 *C 0.500 16.700
*N *6:7 *C 14.100 20.100
*N *6:8 *C 14.100 16.700
*N *6:9 *C 14.100 20.100

*CAP
1 *561:B 0.019460
2 *6:2 0.019460
3 *6:3 0.010744
4 *6:4 0.010744
5 *6:5 0.946329
6 *6:6 0.946329
7 *6:7 0.354127
8 *6:8 0.354127

*RES
1 *6:2 *561:B 0.365600
2 *6:4 *6:3 0.234898
3 *6:6 *6:5 12.430400
4 *6:8 *6:7 3.107600
5 *6:7 *6:9 2.000000
6 *6:5 *6:8 2.000000
7 *6:9 *6:2 2.000000
8 *6:6 *6:3 2.000000
9 *6:4 *290 2.000000
*END

*D_NET *7 2.489270

*CONN
*P *291 I *C 0.500 19.100
*I *562:B I *C 16.100 20.500
*N *7:1 *C 0.500 19.900
*N *7:2 *C 16.100 19.900
*N *7:3 *C 16.100 19.900

*CAP
1 *7:1 1.211253
2 *7:2 1.184261
3 *7:3 0.033382
4 *562:B 0.033382
5 *291 0.026992

*RES
1 *7:1 *7:2 14.258400
2 *7:3 *562:B 0.548400
3 *291 *7:1 0.731200
4 *7:2 *7:3 2.000000
*END

*D_NET *8 2.397975

*CONN
*P *292 I *C 0.515 21.700
*I *563:B I *C 18.100 20.500
*N *8:1 *C 17.000 22.100
*N *8:2 *C 18.100 22.100
*N *8:3 *C 12.100 22.300
*N *8:4 *C 17.000 22.300
*N *8:6 *C 2.300 21.700
*N *8:7 *C 2.300 22.100
*N *8:8 *C 12.100 22.100
*N *8:9 *C 18.100 22.100

*CAP
1 *8:1 0.094107
2 *8:2 0.085110
3 *8:3 0.249328
4 *8:4 0.249328
5 *292 0.059367
6 *8:6 0.079230
7 *8:7 0.736542
8 *8:8 0.725675
9 *8:9 0.059644
10 *563:B 0.059644

*RES
1 *8:1 *8:2 1.005400
2 *8:3 *8:4 4.478600
3 *292 *8:6 1.631490
4 *8:1 *8:4 0.182800
5 *8:7 *8:8 8.957200
6 *8:8 *8:3 0.182800
7 *8:6 *8:7 0.365600
8 *563:B *8:9 1.462400
9 *8:2 *8:9 2.000000
*END

*D_NET *9 2.124262

*CONN
*P *293 I *C 0.515 24.500
*I *564:B I *C 20.100 20.500
*N *9:2 *C 20.100 24.500
*N *9:3 *C 0.515 24.479
*N *9:4 *C 20.100 24.500

*CAP
1 *293 0.902302
2 *9:2 0.898673
3 *9:3 0.003629
4 *9:4 0.159829
5 *564:B 0.159829

*RES
1 *293 *9:2 17.900690
2 *9:3 *293 0.019194
3 *564:B *9:4 3.656000
4 *9:2 *9:4 2.000000
*END

*D_NET *10 1.917484

*CONN
*P *294 I *C 0.500 27.100
*I *565:B I *C 22.100 20.500
*N *10:1 *C 17.000 26.900
*N *10:2 *C 22.100 26.900
*N *10:3 *C 17.000 27.100
*N *10:4 *C 22.100 26.900

*CAP
1 *10:1 0.189311
2 *10:2 0.180314
3 *10:3 0.526113
4 *10:4 0.252315
5 *565:B 0.252315
6 *294 0.517116

*RES
1 *10:1 *10:2 4.661400
2 *10:1 *10:3 0.182800
3 *565:B *10:4 5.849600
4 *294 *10:3 15.081000
5 *10:2 *10:4 2.000000
*END

*D_NET *11 2.582710

*CONN
*P *295 I *C 0.500 29.836
*I *566:B I *C 24.100 20.685
*N *11:2 *C 0.500 30.100
*N *11:3 *C 24.100 30.100
*N *11:4 *C 24.100 30.100

*CAP
1 *295 0.010917
2 *11:2 0.919951
3 *11:3 0.909034
4 *11:4 0.371404
5 *566:B 0.371404

*RES
1 *295 *11:2 0.241296
2 *11:2 *11:3 21.570400
3 *566:B *11:4 8.605310
4 *11:3 *11:4 2.000000
*END

*D_NET *12 2.765784

*CONN
*P *296 I *C 0.500 32.500
*I *542:B I *C 23.500 18.695
*N *12:2 *C 23.500 32.500
*N *12:3 *C 23.500 32.500

*CAP
1 *296 0.782847
2 *12:2 0.782847
3 *12:3 0.600045
4 *542:B 0.600045

*RES
1 *296 *12:2 21.022000
2 *542:B *12:3 12.617770
3 *12:2 *12:3 2.000000
*END

*D_NET *13 4.608769

*CONN
*P *297 I *C 0.500 34.993
*I *551:B I *C 35.500 18.695
*N *13:1 *C 36.300 19.100
*N *13:2 *C 35.500 19.100
*N *13:3 *C 35.500 19.100
*N *13:5 *C 36.300 33.900
*N *13:6 *C 36.300 19.100
*N *13:8 *C 0.500 33.900
*N *13:9 *C 36.300 33.900

*CAP
1 *13:1 0.068660
2 *13:2 0.068660
3 *13:3 0.032647
4 *551:B 0.032647
5 *13:5 0.887557
6 *13:6 0.887557
7 *297 0.035779
8 *13:8 1.315520
9 *13:9 1.279741

*RES
1 *13:2 *13:1 0.731200
2 *551:B *13:3 0.370170
3 *13:6 *13:5 13.527200
4 *13:8 *297 0.999002
5 *13:8 *13:9 32.721200
6 *13:5 *13:9 2.000000
7 *13:2 *13:3 2.000000
8 *13:6 *13:1 2.000000
*END

*D_NET *14 4.813709

*CONN
*P *298 I *C 0.500 37.671
*I *553:B I *C 37.300 18.700
*N *14:1 *C 0.500 36.700
*N *14:2 *C 36.700 36.700
*N *14:3 *C 36.700 36.700
*N *14:4 *C 36.700 18.700
*N *14:6 *C 36.700 18.700
*N *14:7 *C 37.300 18.700
*N *14:9 *C 37.300 18.695

*CAP
1 *14:1 1.241212
2 *14:2 1.209092
3 *14:3 1.106157
4 *14:4 1.106157
5 *298 0.032120
6 *14:6 0.055617
7 *14:7 0.055617
8 *553:B 0.003868
9 *14:9 0.003868

*RES
1 *14:1 *14:2 33.086800
2 *14:4 *14:3 16.452000
3 *14:1 *298 0.887494
4 *14:6 *14:7 0.548400
5 *14:9 *553:B 0.004570
6 *14:7 *553:B 2.000000
7 *14:3 *14:2 2.000000
8 *14:4 *14:6 2.000000
*END

*D_NET *15 4.823596

*CONN
*P *299 I *C 0.500 40.500
*I *554:B I *C 39.500 18.695
*N *15:1 *C 39.500 19.700
*N *15:4 *C 10.300 40.500
*N *15:5 *C 40.700 19.700
*N *15:6 *C 39.500 19.700
*N *15:7 *C 40.700 39.500
*N *15:8 *C 40.700 19.700
*N *15:9 *C 10.300 39.500
*N *15:10 *C 40.700 39.500

*CAP
1 *15:1 0.051984
2 *554:B 0.051984
3 *299 0.302021
4 *15:4 0.335011
5 *15:5 0.082617
6 *15:6 0.082617
7 *15:7 0.733698
8 *15:8 0.733698
9 *15:9 1.241478
10 *15:10 1.208488

*RES
1 *554:B *15:1 0.918570
2 *299 *15:4 8.957200
3 *15:6 *15:5 1.096800
4 *15:8 *15:7 18.097200
5 *15:9 *15:4 0.914000
6 *15:9 *15:10 27.785600
7 *15:6 *15:1 2.000000
8 *15:5 *15:8 2.000000
9 *15:10 *15:7 2.000000
*END

*D_NET *16 8.023817

*CONN
*P *300 I *C 43.300 2.850
*I *555:B I *C 4.300 20.500
*N *16:1 *C 43.300 2.100
*N *16:4 *C 4.300 19.500
*N *16:5 *C 4.100 19.500
*N *16:6 *C 4.100 2.100
*N *16:7 *C 4.300 19.500
*N *16:8 *C 4.100 19.500
*N *16:9 *C 4.100 2.100

*CAP
1 *16:1 2.566544
2 *300 0.025492
3 *555:B 0.108985
4 *16:4 0.108985
5 *16:5 1.305778
6 *16:6 1.305778
7 *16:7 0.030601
8 *16:8 0.030601
9 *16:9 2.541052

*RES
1 *16:1 *300 0.685500
2 *16:4 *555:B 0.914000
3 *16:6 *16:5 15.903600
4 *16:8 *16:7 0.182800
5 *16:9 *16:1 35.828800
6 *16:6 *16:9 2.000000
7 *16:7 *16:4 2.000000
8 *16:5 *16:8 2.000000
*END

*D_NET *17 6.688012

*CONN
*P *301 I *C 43.171 5.700
*I *557:B I *C 5.900 20.700
*N *17:1 *C 35.300 20.900
*N *17:2 *C 35.300 19.900
*N *17:4 *C 5.900 20.500
*N *17:5 *C 11.100 20.900
*N *17:6 *C 11.100 20.700
*N *17:7 *C 36.500 20.900
*N *17:8 *C 35.300 20.900
*N *17:9 *C 6.100 20.700
*N *17:10 *C 27.700 20.700
*N *17:11 *C 27.700 20.900
*N *17:12 *C 33.500 20.700
*N *17:13 *C 27.700 20.700
*N *17:14 *C 36.500 20.700
*N *17:16 *C 40.900 5.700
*N *17:17 *C 33.500 19.900
*N *17:18 *C 33.500 20.700
*N *17:19 *C 40.900 5.700
*N *17:20 *C 40.900 20.700
*N *17:21 *C 6.100 20.700
*N *17:22 *C 35.300 19.900
*N *17:23 *C 33.500 19.900
*N *17:24 *C 40.900 20.700
*N *17:25 *C 27.700 20.700
*N *17:26 *C 6.100 20.700
*N *17:27 *C 6.100 20.700

*CAP
1 *17:1 0.065139
2 *17:2 0.065139
3 *557:B 0.023961
4 *17:4 0.012429
5 *17:5 1.491611
6 *17:6 0.297801
7 *17:7 0.122747
8 *17:8 0.113749
9 *17:9 0.286287
10 *17:10 0.013101
11 *17:11 1.493199
12 *17:12 0.363952
13 *17:13 0.363952
14 *17:14 0.243585
15 *301 0.071108
16 *17:16 0.071108
17 *17:17 0.033777
18 *17:18 0.033777
19 *17:19 0.514431
20 *17:20 0.514431
21 *17:21 0.011532
22 *17:22 0.123304
23 *17:23 0.123304
24 *17:24 0.234588

*RES
1 *17:2 *17:1 0.914000
2 *17:4 *557:B 0.182800
3 *17:6 *17:5 0.182800
4 *17:8 *17:7 1.096800
5 *17:9 *17:6 4.570000
6 *17:10 *17:11 0.182800
7 *17:13 *17:12 5.301200
8 *17:14 *17:7 0.182800
9 *17:5 *17:11 15.172400
10 *17:16 *301 2.075694
11 *17:17 *17:18 0.731200
12 *17:19 *17:20 13.710000
13 *557:B *17:21 0.182800
14 *17:23 *17:22 1.645200
15 *17:14 *17:24 4.021600
16 *17:25 *17:13 2.000000
17 *17:26 *17:21 2.000000
18 *17:9 *17:27 2.000000
19 *17:22 *17:2 2.000000
20 *17:12 *17:18 2.000000
21 *17:23 *17:17 2.000000
22 *17:10 *17:25 2.000000
23 *17:19 *17:16 2.000000
24 *17:20 *17:24 2.000000
25 *17:27 *17:26 2.000000
26 *17:8 *17:1 2.000000
*END

*D_NET *18 4.744275

*CONN
*P *302 I *C 43.171 8.300
*I *487:A I *C 19.700 16.300
*N *18:1 *C 39.700 8.300
*N *18:2 *C 39.700 16.100
*N *18:4 *C 39.700 8.300
*N *18:5 *C 21.700 16.100
*N *18:6 *C 21.700 16.300
*N *18:7 *C 21.700 16.300
*N *18:8 *C 19.700 16.300
*N *18:9 *C 39.700 16.100
*N *18:10 *C 21.700 16.100
*N *18:12 *C 19.700 15.910

*CAP
1 *18:1 0.618494
2 *18:2 0.618494
3 *302 0.188391
4 *18:4 0.188391
5 *18:5 0.030572
6 *18:6 0.030572
7 *18:7 0.168021
8 *18:8 0.168021
9 *18:9 1.333561
10 *18:10 1.333561
11 *487:A 0.033099
12 *18:12 0.033099

*RES
1 *18:1 *18:2 7.129200
2 *18:4 *302 3.172494
3 *18:5 *18:6 0.182800
4 *18:8 *18:7 1.828000
5 *18:10 *18:9 16.452000
6 *18:12 *487:A 0.356460
7 *18:8 *487:A 2.000000
8 *18:1 *18:4 2.000000
9 *18:10 *18:5 2.000000
10 *18:6 *18:7 2.000000
11 *18:9 *18:2 2.000000
*END

*D_NET *19 4.123311

*CONN
*P *303 I *C 43.300 10.886
*I *513:A I *C 18.900 17.500
*N *19:1 *C 19.700 17.300
*N *19:2 *C 33.800 17.300
*N *19:4 *C 18.900 18.100
*N *19:5 *C 18.900 18.100
*N *19:6 *C 19.700 18.100
*N *19:7 *C 43.300 17.000
*N *19:8 *C 43.300 10.886
*N *19:9 *C 19.700 18.100
*N *19:10 *C 19.700 17.300
*N *19:11 *C 41.900 17.100
*N *19:12 *C 41.900 17.000
*N *19:13 *C 33.800 17.100
*N *19:14 *C 41.900 17.000
*N *19:15 *C 43.300 17.000
*N *19:16 *C 41.900 17.100

*CAP
1 *19:1 1.075664
2 *19:2 1.088766
3 *513:A 0.029070
4 *19:4 0.029070
5 *19:5 0.055221
6 *19:6 0.055221
7 *19:7 0.187393
8 *19:8 0.187393
9 *19:9 0.085115
10 *19:10 0.085115
11 *19:11 0.007286
12 *19:12 0.007286
13 *19:13 0.574863
14 *19:14 0.047044
15 *19:15 0.047044
16 *19:16 0.561761

*RES
1 *19:1 *19:2 12.887400
2 *513:A *19:4 0.548400
3 *19:5 *19:6 0.731200
4 *19:8 *19:7 5.588196
5 *19:10 *19:9 0.731200
6 *19:12 *19:11 0.091400
7 *19:13 *19:2 0.182800
8 *19:14 *19:15 1.279600
9 *19:13 *19:16 7.403400
10 *19:16 *19:11 2.000000
11 *19:5 *19:4 2.000000
12 *19:8 *303 2.000000
13 *19:12 *19:14 2.000000
14 *19:1 *19:10 2.000000
15 *19:7 *19:15 2.000000
16 *19:9 *19:6 2.000000
*END

*D_NET *20 3.203817

*CONN
*P *304 I *C 43.171 13.700
*I *515:A I *C 23.500 17.500
*N *20:2 *C 39.900 13.700
*N *20:3 *C 39.900 13.700
*N *20:4 *C 39.900 17.000
*N *20:5 *C 39.700 17.000
*N *20:6 *C 39.700 18.100
*N *20:7 *C 23.500 18.100
*N *20:8 *C 23.500 18.100
*N *20:9 *C 23.500 17.500
*N *20:10 *C 39.700 18.100
*N *20:11 *C 23.500 17.500

*CAP
1 *304 0.165012
2 *20:2 0.165012
3 *20:3 0.211879
4 *20:4 0.220669
5 *20:5 0.096450
6 *20:6 1.073218
7 *20:7 1.073218
8 *20:8 0.055350
9 *20:9 0.055350
10 *20:10 0.087660

*RES
1 *20:2 *304 2.989694
2 *20:3 *20:4 3.016200
3 *20:5 *20:4 0.182800
4 *20:7 *20:6 14.806800
5 *20:9 *20:8 0.548400
6 *20:5 *20:10 1.005400
7 *20:3 *20:2 2.000000
8 *20:7 *20:8 2.000000
9 *20:9 *20:11 2.000000
10 *20:6 *20:10 2.000000
11 *20:11 *515:A 2.000000
*END

*D_NET *21 2.131020

*CONN
*P *305 I *C 43.300 16.443
*I *520:A I *C 31.300 17.300
*N *21:1 *C 35.900 15.700
*N *21:2 *C 35.900 15.900
*N *21:3 *C 37.900 15.900
*N *21:4 *C 37.900 15.875
*N *21:5 *C 31.100 15.700
*N *21:6 *C 43.300 15.875
*N *21:9 *C 31.100 17.300
*N *21:10 *C 31.100 15.700
*N *21:11 *C 31.300 17.500

*CAP
1 *21:1 0.460363
2 *21:2 0.166085
3 *21:3 0.160837
4 *21:4 0.287460
5 *21:5 0.451365
6 *21:6 0.303745
7 *305 0.020034
8 *520:A 0.032669
9 *21:9 0.124184
10 *21:10 0.107897
11 *21:11 0.016382

*RES
1 *21:1 *21:2 0.182800
2 *21:4 *21:3 0.022850
3 *21:5 *21:1 4.387200
4 *21:6 *305 0.519152
5 *21:9 *520:A 0.182800
6 *21:2 *21:3 1.828000
7 *21:4 *21:6 4.935600
8 *21:10 *21:9 1.462400
9 *520:A *21:11 0.182800
10 *21:5 *21:10 2.000000
*END

*D_NET *22 1.118484

*CONN
*P *306 I *C 43.171 19.100
*I *524:A I *C 35.100 17.500
*N *22:1 *C 35.100 17.100
*N *22:3 *C 41.500 19.100
*N *22:4 *C 41.500 17.100
*N *22:5 *C 41.500 17.100
*N *22:6 *C 35.100 17.100
*N *22:8 *C 41.500 19.100

*CAP
1 *22:1 0.020648
2 *524:A 0.020648
3 *22:3 0.089768
4 *22:4 0.089768
5 *22:5 0.391384
6 *22:6 0.391384
7 *306 0.057442
8 *22:8 0.057442

*RES
1 *22:1 *524:A 0.365600
2 *22:4 *22:3 1.828000
3 *22:6 *22:5 5.849600
4 *22:8 *306 1.527294
5 *22:3 *22:8 2.000000
6 *22:6 *22:1 2.000000
7 *22:4 *22:5 2.000000
*END

*D_NET *23 1.171005

*CONN
*P *307 I *C 43.171 21.700
*I *525:A I *C 35.700 17.500
*N *23:1 *C 35.700 18.100
*N *23:2 *C 43.171 18.100
*N *23:3 *C 43.171 18.100
*N *23:4 *C 43.171 21.700
*N *23:6 *C 35.700 18.100

*CAP
1 *23:1 0.441540
2 *23:2 0.441540
3 *23:3 0.120294
4 *23:4 0.120294
5 *525:A 0.023669
6 *23:6 0.023669

*RES
1 *23:1 *23:2 6.828494
2 *23:3 *23:4 3.290400
3 *525:A *23:6 0.548400
4 *23:4 *307 2.000000
5 *23:3 *23:2 2.000000
6 *23:1 *23:6 2.000000
*END

*D_NET *24 4.782450

*CONN
*P *308 I *C 43.300 24.300
*I *527:A I *C 3.300 18.895
*N *24:1 *C 4.300 24.100
*N *24:2 *C 33.800 24.100
*N *24:4 *C 43.300 24.279
*N *24:5 *C 3.300 19.100
*N *24:6 *C 4.300 19.100
*N *24:7 *C 33.800 24.300
*N *24:8 *C 4.300 19.100
*N *24:9 *C 4.300 24.100
*N *24:11 *C 3.300 19.100

*CAP
1 *24:1 1.347009
2 *24:2 1.356006
3 *308 0.611193
4 *24:4 0.003629
5 *24:5 0.085856
6 *24:6 0.085856
7 *24:7 0.616561
8 *24:8 0.317561
9 *24:9 0.317561
10 *527:A 0.020609
11 *24:11 0.020609

*RES
1 *24:1 *24:2 26.963000
2 *24:4 *308 0.019194
3 *24:5 *24:6 0.914000
4 *24:7 *308 8.683000
5 *24:2 *24:7 0.182800
6 *24:8 *24:9 4.570000
7 *527:A *24:11 0.187370
8 *24:9 *24:1 2.000000
9 *24:8 *24:6 2.000000
10 *24:5 *24:11 2.000000
*END

*D_NET *25 4.412332

*CONN
*P *309 I *C 43.171 27.100
*I *532:A I *C 11.100 18.892
*N *25:1 *C 10.900 19.900
*N *25:2 *C 10.900 19.700
*N *25:4 *C 33.800 27.100
*N *25:5 *C 11.100 19.700
*N *25:7 *C 10.500 23.500
*N *25:8 *C 10.500 21.315
*N *25:9 *C 10.300 19.900
*N *25:10 *C 33.800 27.100
*N *25:11 *C 33.800 25.500
*N *25:12 *C 10.300 21.315
*N *25:13 *C 10.300 25.500
*N *25:14 *C 10.300 23.500
*N *25:15 *C 33.800 25.500
*N *25:16 *C 10.300 25.500

*CAP
1 *25:1 0.028551
2 *25:2 0.020791
3 *309 0.289033
4 *25:4 0.289033
5 *25:5 0.065046
6 *532:A 0.053498
7 *25:7 0.106841
8 *25:8 0.102057
9 *25:9 0.081575
10 *25:10 0.059311
11 *25:11 0.059311
12 *25:12 0.067052
13 *25:13 0.071408
14 *25:14 0.080977
15 *25:15 1.518924
16 *25:16 1.518924

*RES
1 *25:2 *25:1 0.182800
2 *25:4 *309 8.565094
3 *532:A *25:5 0.738512
4 *25:8 *25:7 1.997090
5 *25:9 *25:1 0.548400
6 *25:11 *25:10 1.462400
7 *25:12 *25:8 0.182800
8 *25:9 *25:12 1.293310
9 *25:14 *25:13 1.828000
10 *25:16 *25:15 21.479000
11 *25:14 *25:7 0.182800
12 *25:2 *25:5 0.182800
13 *25:15 *25:11 2.000000
14 *25:16 *25:13 2.000000
15 *25:4 *25:10 2.000000
*END

*D_NET *26 3.716025

*CONN
*P *310 I *C 43.300 29.700
*I *536:A I *C 14.900 18.892
*N *26:2 *C 43.300 29.836
*N *26:3 *C 14.900 29.700
*N *26:5 *C 14.900 19.700
*N *26:6 *C 14.900 19.700
*N *26:7 *C 14.900 29.700
*N *26:8 *C 14.900 19.700

*CAP
1 *310 1.068181
2 *26:2 0.007078
3 *26:3 1.061103
4 *536:A 0.067827
5 *26:5 0.067827
6 *26:6 0.722005
7 *26:7 0.722005

*RES
1 *310 *26:2 0.124304
2 *26:3 *310 25.957600
3 *536:A *26:5 0.738512
4 *26:6 *26:7 9.140000
5 *26:6 *26:8 2.000000
6 *26:8 *26:5 2.000000
7 *26:7 *26:3 2.000000
*END

*D_NET *27 3.593790

*CONN
*P *311 I *C 43.171 32.500
*I *540:AN I *C 19.300 18.900
*N *27:1 *C 33.800 32.900
*N *27:2 *C 19.700 32.900
*N *27:3 *C 19.700 32.900
*N *27:4 *C 19.700 18.900
*N *27:5 *C 33.800 32.500
*N *27:7 *C 19.700 18.900
*N *27:8 *C 19.300 18.900
*N *27:10 *C 19.300 18.892

*CAP
1 *27:1 0.519642
2 *27:2 0.504647
3 *27:3 0.939905
4 *27:4 0.939905
5 *27:5 0.305012
6 *311 0.290016
7 *27:7 0.041962
8 *27:8 0.041962
9 *540:AN 0.005370
10 *27:10 0.005370

*RES
1 *27:2 *27:1 12.887400
2 *27:4 *27:3 12.796000
3 *27:5 *27:1 0.365600
4 *27:5 *311 8.565094
5 *27:8 *27:7 0.365600
6 *27:10 *540:AN 0.007312
7 *27:8 *540:AN 2.000000
8 *27:4 *27:7 2.000000
9 *27:3 *27:2 2.000000
*END

*D_NET *28 3.661764

*CONN
*P *312 I *C 43.300 34.993
*I *488:A I *C 20.300 16.095
*N *28:1 *C 43.300 34.300
*N *28:3 *C 20.700 34.300
*N *28:4 *C 20.700 17.000
*N *28:5 *C 20.700 34.300
*N *28:6 *C 20.300 17.000

*CAP
1 *28:1 1.025427
2 *312 0.023783
3 *28:3 1.001644
4 *28:4 0.746324
5 *28:5 0.728700
6 *28:6 0.076755
7 *488:A 0.059132

*RES
1 *28:1 *312 0.633402
2 *28:3 *28:1 20.656400
3 *28:4 *28:5 15.812200
4 *28:6 *28:4 0.365600
5 *488:A *28:6 0.827170
6 *28:3 *28:5 2.000000
*END

*D_NET *29 3.359649

*CONN
*P *313 I *C 43.300 37.671
*I *494:A I *C 31.300 16.092
*N *29:1 *C 31.500 16.900
*N *29:2 *C 31.500 37.100
*N *29:3 *C 31.500 37.100
*N *29:4 *C 43.300 37.100
*N *29:6 *C 31.300 16.900
*N *29:7 *C 31.500 16.900
*N *29:9 *C 31.300 16.900

*CAP
1 *29:1 1.103940
2 *29:2 1.103940
3 *29:3 0.470828
4 *29:4 0.490952
5 *313 0.020124
6 *29:6 0.022319
7 *29:7 0.022319
8 *494:A 0.062614
9 *29:9 0.062614

*RES
1 *29:1 *29:2 18.462800
2 *29:3 *29:4 10.785200
3 *29:4 *313 0.521894
4 *29:6 *29:7 0.182800
5 *494:A *29:9 0.738512
6 *29:1 *29:7 2.000000
7 *29:6 *29:9 2.000000
8 *29:2 *29:3 2.000000
*END

*D_NET *30 3.535541

*CONN
*P *314 I *C 43.171 40.500
*I *495:A I *C 31.900 16.095
*N *30:1 *C 31.100 16.700
*N *30:2 *C 31.900 16.700
*N *30:3 *C 31.900 16.700
*N *30:5 *C 33.800 40.500
*N *30:6 *C 33.800 39.900
*N *30:7 *C 31.100 39.900
*N *30:8 *C 31.100 16.700
*N *30:9 *C 31.100 39.900

*CAP
1 *30:1 0.075470
2 *30:2 0.075470
3 *30:3 0.048897
4 *495:A 0.048897
5 *30:5 0.320832
6 *30:6 0.149930
7 *30:7 1.193634
8 *30:8 1.193634
9 *30:9 0.128937
10 *314 0.299838

*RES
1 *30:1 *30:2 0.731200
2 *495:A *30:3 0.552970
3 *30:6 *30:5 0.548400
4 *30:8 *30:7 21.204800
5 *30:9 *30:6 2.467800
6 *30:5 *314 8.565094
7 *30:8 *30:1 2.000000
8 *30:2 *30:3 2.000000
9 *30:7 *30:9 2.000000
*END

*D_NET *31 8.595449

*CONN
*P *315 I *C 2.050 0.500
*I *499:AN I *C 39.300 16.300
*N *31:1 *C 37.500 17.900
*N *31:2 *C 37.500 17.300
*N *31:3 *C 37.700 17.900
*N *31:4 *C 38.100 16.300
*N *31:5 *C 39.300 16.300
*N *31:6 *C 37.500 17.300
*N *31:7 *C 38.100 17.300
*N *31:8 *C 1.700 25.500
*N *31:9 *C 37.700 25.500
*N *31:10 *C 38.100 17.300
*N *31:11 *C 38.100 16.500
*N *31:12 *C 1.700 0.500
*N *31:13 *C 1.700 25.500
*N *31:15 *C 39.300 16.092
*N *31:16 *C 38.100 16.500
*N *31:17 *C 37.700 25.500

*CAP
1 *31:1 0.069263
2 *31:2 0.060473
3 *31:3 0.469689
4 *31:4 0.125617
5 *31:5 0.116619
6 *31:6 0.052955
7 *31:7 0.052955
8 *31:8 1.998952
9 *31:9 1.998952
10 *31:10 0.074543
11 *31:11 0.074543
12 *31:12 1.501415
13 *31:13 1.488231
14 *499:AN 0.014081
15 *31:15 0.014081
16 *31:16 0.008997
17 *31:17 0.460899
18 *315 0.013185

*RES
1 *31:2 *31:1 0.548400
2 *31:1 *31:3 0.182800
3 *31:4 *31:5 1.096800
4 *31:6 *31:7 0.548400
5 *31:8 *31:9 32.904000
6 *31:11 *31:10 0.731200
7 *31:12 *31:13 22.850000
8 *31:15 *499:AN 0.190112
9 *31:4 *31:16 0.182800
10 *31:3 *31:17 6.946400
11 *31:12 *315 0.319900
12 *31:7 *31:10 2.000000
13 *31:2 *31:6 2.000000
14 *31:16 *31:11 2.000000
15 *31:5 *499:AN 2.000000
16 *31:9 *31:17 2.000000
17 *31:8 *31:13 2.000000
*END

*D_NET *32 2.878653

*CONN
*P *316 I *C 4.857 0.500
*I *505:A0 I *C 8.500 17.900
*N *32:2 *C 8.500 17.700
*N *32:3 *C 4.500 0.500
*N *32:4 *C 4.500 17.900
*N *32:5 *C 4.500 17.900
*N *32:6 *C 7.500 17.900
*N *32:7 *C 7.500 17.900
*N *32:8 *C 8.500 17.900
*N *32:10 *C 7.500 17.900

*CAP
1 *505:A0 0.016448
2 *32:2 0.016448
3 *32:3 1.059576
4 *32:4 1.046187
5 *32:5 0.252354
6 *32:6 0.252354
7 *32:7 0.110948
8 *32:8 0.110948
9 *316 0.013390

*RES
1 *32:2 *505:A0 0.182800
2 *32:3 *32:4 15.903600
3 *32:5 *32:6 2.742000
4 *32:7 *32:8 0.914000
5 *32:3 *316 0.326298
6 *32:6 *32:10 2.000000
7 *32:10 *32:7 2.000000
8 *32:8 *505:A0 2.000000
9 *32:5 *32:4 2.000000
*END

*D_NET *33 3.877841

*CONN
*P *317 I *C 7.664 0.500
*I *512:A I *C 18.300 17.525
*N *33:1 *C 17.300 15.900
*N *33:2 *C 17.300 16.300
*N *33:3 *C 18.100 17.300
*N *33:4 *C 18.100 17.525
*N *33:5 *C 17.500 2.900
*N *33:6 *C 17.500 5.800
*N *33:7 *C 8.500 2.900
*N *33:8 *C 17.500 2.900
*N *33:9 *C 17.700 17.300
*N *33:10 *C 18.100 17.525
*N *33:11 *C 18.300 17.525
*N *33:13 *C 8.500 0.500
*N *33:14 *C 17.700 16.300
*N *33:15 *C 17.100 5.800
*N *33:16 *C 17.100 15.900
*N *33:17 *C 8.500 2.900
*N *33:19 *C 18.300 17.690

*CAP
1 *33:1 0.042874
2 *33:2 0.045489
3 *33:3 0.037114
4 *33:4 0.019335
5 *33:5 0.172485
6 *33:6 0.189047
7 *33:7 0.487292
8 *33:8 0.487292
9 *33:9 0.074165
10 *33:10 0.016187
11 *33:11 0.016187
12 *317 0.027424
13 *33:13 0.275243
14 *33:14 0.070087
15 *33:15 0.824670
16 *33:16 0.819193
17 *33:17 0.247819
18 *512:A 0.012969
19 *33:19 0.012969

*RES
1 *33:1 *33:2 0.365600
2 *33:3 *33:4 0.205650
3 *33:5 *33:6 2.650600
4 *33:7 *33:8 8.226000
5 *33:9 *33:3 0.365600
6 *33:10 *33:11 0.182800
7 *317 *33:13 0.764104
8 *33:14 *33:9 0.914000
9 *33:2 *33:14 0.365600
10 *33:15 *33:16 9.231400
11 *33:16 *33:1 0.182800
12 *33:15 *33:6 0.365600
13 *33:13 *33:17 2.193600
14 *512:A *33:19 0.150810
15 *33:4 *33:10 2.000000
16 *33:11 *512:A 2.000000
17 *33:7 *33:17 2.000000
18 *33:8 *33:5 2.000000
*END

*D_NET *34 6.243656

*CONN
*P *318 O *C 10.471 0.500
*I *568:AN I *C 26.700 20.500
*I *569:B I *C 28.100 20.500
*I *567:A I *C 24.900 20.300
*I *571:Q O *C 33.700 20.100
*N *34:1 *C 24.900 20.300
*N *34:2 *C 20.300 20.300
*N *34:4 *C 26.500 20.500
*N *34:5 *C 13.300 6.100
*N *34:6 *C 13.700 6.100
*N *34:7 *C 13.700 0.500
*N *34:9 *C 28.100 20.490
*N *34:10 *C 13.700 0.500
*N *34:11 *C 10.471 0.500
*N *34:12 *C 13.300 20.700
*N *34:13 *C 28.100 20.300
*N *34:14 *C 33.700 20.300
*N *34:15 *C 20.300 20.300
*N *34:16 *C 20.300 20.700
*N *34:17 *C 33.700 20.100
*N *34:18 *C 20.300 20.700
*N *34:19 *C 13.300 20.700
*N *34:20 *C 28.100 20.500
*N *34:21 *C 26.500 20.300
*N *34:22 *C 26.500 20.500

*CAP
1 *34:1 0.484974
2 *34:2 0.384222
3 *568:AN 0.009569
4 *34:4 0.009569
5 *34:5 1.047921
6 *34:6 0.318385
7 *34:7 0.297362
8 *569:B 0.007204
9 *34:9 0.007204
10 *34:10 0.125272
11 *34:11 0.125272
12 *34:12 1.026898
13 *34:13 0.334712
14 *34:14 0.333654
15 *34:15 0.032441
16 *34:16 0.032441
17 *34:17 0.008997
18 *34:18 0.613260
19 *34:19 0.613260
20 *34:20 0.154852
21 *34:21 0.116071
22 *34:22 0.160116

*RES
1 *34:2 *34:1 4.204400
2 *34:4 *568:AN 0.182800
3 *34:5 *34:6 0.365600
4 *34:7 *34:6 5.118400
5 *34:9 *569:B 0.009140
6 *34:11 *34:10 2.951306
7 *34:5 *34:12 13.344400
8 *34:13 *34:14 5.118400
9 *34:15 *34:16 0.365600
10 *34:17 *34:14 0.182800
11 *34:19 *34:18 6.398000
12 *34:13 *34:20 0.182800
13 *34:1 *34:21 1.462400
14 *34:21 *34:22 0.182800
15 *34:22 *34:20 1.462400
16 *34:19 *34:12 2.000000
17 *34:22 *34:4 2.000000
18 *34:10 *34:7 2.000000
19 *34:11 *318 2.000000
20 *34:1 *567:A 2.000000
21 *34:15 *34:2 2.000000
22 *34:17 *571:Q 2.000000
23 *34:18 *34:16 2.000000
24 *34:20 *569:B 2.000000
*END

*D_NET *35 9.483855

*CONN
*P *319 I *C 13.479 0.515
*I *572:A1 I *C 34.300 20.300
*I *578:B I *C 4.900 21.692
*N *35:1 *C 34.300 20.900
*N *35:3 *C 12.900 22.900
*N *35:4 *C 34.100 22.900
*N *35:5 *C 4.900 22.900
*N *35:7 *C 12.900 0.515
*N *35:8 *C 12.900 22.900
*N *35:9 *C 34.100 22.900
*N *35:10 *C 34.100 20.900
*N *35:11 *C 4.900 22.900

*CAP
1 *35:1 0.054234
2 *572:A1 0.044601
3 *35:3 2.870503
4 *35:4 2.112323
5 *35:5 0.106382
6 *578:B 0.106382
7 *35:7 1.558652
8 *35:8 1.538758
9 *35:9 0.152156
10 *35:10 0.161789
11 *35:11 0.758181
12 *319 0.019894

*RES
1 *572:A1 *35:1 0.548400
2 *35:3 *35:4 19.376800
3 *578:B *35:5 1.104112
4 *35:7 *35:8 20.459890
5 *35:10 *35:9 1.828000
6 *35:10 *35:1 0.182800
7 *35:11 *35:3 7.312000
8 *35:7 *319 0.529206
9 *35:8 *35:3 2.000000
10 *35:4 *35:9 2.000000
11 *35:11 *35:5 2.000000
*END

*D_NET *36 4.626096

*CONN
*P *320 I *C 16.286 0.515
*I *581:A I *C 8.100 21.700
*I *579:B0 I *C 5.900 21.692
*I *582:C0 I *C 8.900 21.700
*N *36:1 *C 8.100 21.700
*N *36:2 *C 8.700 21.700
*N *36:4 *C 8.100 21.692
*N *36:5 *C 8.700 0.515
*N *36:6 *C 16.286 0.515
*N *36:7 *C 8.700 21.700
*N *36:8 *C 8.700 0.515
*N *36:9 *C 6.700 21.900
*N *36:10 *C 6.700 22.300
*N *36:11 *C 8.100 22.300
*N *36:12 *C 5.900 21.900
*N *36:13 *C 6.700 21.900
*N *36:14 *C 8.900 21.700
*N *36:16 *C 5.900 21.900
*N *36:18 *C 8.900 21.892

*CAP
1 *36:1 0.040424
2 *36:2 0.057748
3 *581:A 0.025189
4 *36:4 0.002865
5 *36:5 0.230509
6 *36:6 0.230509
7 *36:7 1.807796
8 *36:8 1.807796
9 *36:9 0.029762
10 *36:10 0.078250
11 *36:11 0.070811
12 *36:12 0.074295
13 *36:13 0.074295
14 *36:14 0.017324
15 *579:B0 0.021116
16 *36:16 0.021116
17 *582:C0 0.018146
18 *36:18 0.018146

*RES
1 *36:1 *36:2 0.548400
2 *36:4 *581:A 0.007312
3 *36:5 *36:6 6.933604
4 *36:8 *36:7 19.363090
5 *36:9 *36:10 0.365600
6 *581:A *36:11 0.548400
7 *36:12 *36:13 0.731200
8 *36:10 *36:11 1.279600
9 *36:2 *36:14 0.182800
10 *579:B0 *36:16 0.190112
11 *582:C0 *36:18 0.175488
12 *36:12 *36:16 2.000000
13 *320 *36:6 2.000000
14 *36:14 *582:C0 2.000000
15 *36:8 *36:5 2.000000
16 *36:7 *36:2 2.000000
17 *36:1 *581:A 2.000000
18 *36:13 *36:9 2.000000
*END

*D_NET *37 0.631073

*CONN
*P *321 O *C 19.093 0.515
*I *345:Y O *C 24.900 4.465
*N *37:1 *C 24.900 0.515
*N *37:2 *C 19.093 0.515
*N *37:4 *C 24.900 0.515

*CAP
1 *37:1 0.186354
2 *37:2 0.186354
3 *345:Y 0.129183
4 *37:4 0.129183

*RES
1 *37:2 *37:1 5.307598
2 *37:4 *345:Y 3.610300
3 *37:1 *37:4 2.000000
4 *321 *37:2 2.000000
*END

*D_NET *38 3.933516

*CONN
*P *322 O *C 21.700 0.515
*I *406:Y O *C 14.100 8.875
*I *514:A I *C 20.900 17.500
*N *38:1 *C 21.700 10.100
*N *38:3 *C 19.700 10.100
*N *38:4 *C 21.700 10.100
*N *38:5 *C 20.100 17.300
*N *38:6 *C 20.100 17.500
*N *38:7 *C 19.700 15.500
*N *38:8 *C 19.900 15.500
*N *38:9 *C 19.900 17.300
*N *38:11 *C 14.100 10.100
*N *38:12 *C 19.700 10.100
*N *38:13 *C 14.100 10.100
*N *38:14 *C 19.900 17.100
*N *38:15 *C 19.900 17.100
*N *38:16 *C 20.900 17.500

*CAP
1 *38:1 0.597114
2 *322 0.597114
3 *38:3 0.753133
4 *38:4 0.202281
5 *38:5 0.025295
6 *38:6 0.081208
7 *38:7 0.307069
8 *38:8 0.118767
9 *38:9 0.026396
10 *406:Y 0.092640
11 *38:11 0.092640
12 *38:12 0.297500
13 *38:13 0.550852
14 *38:14 0.013784
15 *38:15 0.109198
16 *38:16 0.068526

*RES
1 *322 *38:1 8.760690
2 *38:3 *38:4 1.828000
3 *38:5 *38:6 0.182800
4 *38:7 *38:8 0.182800
5 *38:9 *38:5 0.182800
6 *406:Y *38:11 1.119650
7 *38:12 *38:7 4.935600
8 *38:13 *38:3 5.118400
9 *38:14 *38:9 0.182800
10 *38:8 *38:15 1.462400
11 *38:6 *38:16 0.731200
12 *38:1 *38:4 2.000000
13 *38:16 *514:A 2.000000
14 *38:14 *38:15 2.000000
15 *38:3 *38:12 2.000000
16 *38:13 *38:11 2.000000
*END

*D_NET *39 5.497423

*CONN
*P *323 O *C 24.700 0.515
*I *422:Y O *C 40.300 8.875
*I *516:A I *C 25.500 17.500
*N *39:1 *C 24.700 6.100
*N *39:2 *C 25.100 6.100
*N *39:3 *C 25.100 13.100
*N *39:4 *C 27.900 13.100
*N *39:5 *C 40.300 12.500
*N *39:7 *C 27.900 13.300
*N *39:8 *C 36.500 12.500
*N *39:9 *C 40.300 12.500
*N *39:10 *C 36.500 13.300
*N *39:11 *C 36.500 12.500
*N *39:12 *C 25.500 12.500
*N *39:14 *C 36.500 13.300
*N *39:15 *C 25.100 12.500
*N *39:16 *C 25.500 12.500
*N *39:18 *C 25.100 12.500
*N *39:19 *C 25.100 13.100

*CAP
1 *39:1 0.350859
2 *39:2 0.533981
3 *39:3 0.259421
4 *39:4 0.272522
5 *39:5 0.148097
6 *422:Y 0.148097
7 *39:7 0.690980
8 *39:8 0.236358
9 *39:9 0.236358
10 *39:10 0.090602
11 *39:11 0.090602
12 *39:12 0.357596
13 *516:A 0.357596
14 *39:14 0.677879
15 *39:15 0.038578
16 *39:16 0.038578
17 *323 0.334297
18 *39:18 0.576220
19 *39:19 0.058800

*RES
1 *39:1 *39:2 0.365600
2 *39:3 *39:4 2.559200
3 *422:Y *39:5 3.313250
4 *39:4 *39:7 0.182800
5 *39:8 *39:9 3.473200
6 *39:11 *39:10 0.731200
7 *39:12 *516:A 4.570000
8 *39:7 *39:14 7.860400
9 *39:15 *39:16 0.365600
10 *323 *39:1 5.104690
11 *39:18 *39:19 0.548400
12 *39:2 *39:18 5.849600
13 *39:18 *39:15 2.000000
14 *39:14 *39:10 2.000000
15 *39:16 *39:12 2.000000
16 *39:11 *39:8 2.000000
17 *39:9 *39:5 2.000000
18 *39:3 *39:19 2.000000
*END

*D_NET *40 3.832861

*CONN
*P *324 O *C 27.500 0.515
*I *518:B I *C 28.900 17.700
*I *416:Y O *C 33.100 8.665
*N *40:1 *C 28.700 0.515
*N *40:2 *C 32.900 0.515
*N *40:3 *C 28.700 17.000
*N *40:4 *C 28.700 0.515
*N *40:6 *C 28.900 17.000
*N *40:7 *C 27.500 0.515
*N *40:8 *C 33.100 6.900
*N *40:10 *C 28.900 17.000
*N *40:11 *C 32.900 6.900
*N *40:12 *C 32.900 0.515
*N *40:14 *C 28.900 17.000

*CAP
1 *40:1 0.177570
2 *40:2 0.137481
3 *40:3 1.208373
4 *40:4 1.195759
5 *518:B 0.069506
6 *40:6 0.069506
7 *40:7 0.040088
8 *40:8 0.089767
9 *416:Y 0.078356
10 *40:10 0.012614
11 *40:11 0.382626
12 *40:12 0.371214

*RES
1 *40:1 *40:2 3.838800
2 *40:4 *40:3 15.067290
3 *40:6 *518:B 0.639800
4 *40:7 *40:1 1.096800
5 *40:8 *416:Y 1.613210
6 *40:3 *40:10 0.182800
7 *40:11 *40:8 0.182800
8 *40:12 *40:11 5.835890
9 *40:4 *40:1 2.000000
10 *40:2 *40:12 2.000000
11 *324 *40:7 2.000000
12 *40:10 *40:14 2.000000
13 *40:14 *40:6 2.000000
*END

*D_NET *41 2.450957

*CONN
*P *325 O *C 30.300 0.515
*I *435:Y O *C 32.500 10.275
*I *522:B I *C 32.700 17.885
*N *41:2 *C 30.300 7.100
*N *41:4 *C 32.500 16.700
*N *41:5 *C 32.700 16.700
*N *41:6 *C 30.300 7.100
*N *41:7 *C 32.500 7.100
*N *41:8 *C 32.500 7.100

*CAP
1 *325 0.353296
2 *41:2 0.353296
3 *435:Y 0.542291
4 *41:4 0.409270
5 *41:5 0.101413
6 *41:6 0.228479
7 *41:7 0.228479
8 *41:8 0.145692
9 *522:B 0.088741

*RES
1 *325 *41:2 6.018690
2 *435:Y *41:4 5.872450
3 *41:4 *41:5 0.182800
4 *41:6 *41:7 2.010800
5 *41:8 *435:Y 2.901950
6 *41:5 *522:B 1.083090
7 *41:2 *41:6 2.000000
8 *41:7 *41:8 2.000000
*END

*D_NET *42 3.424236

*CONN
*P *326 O *C 33.100 0.515
*I *437:Y O *C 35.300 10.300
*I *526:A I *C 37.700 17.500
*N *42:1 *C 37.700 10.300
*N *42:2 *C 35.300 10.300
*N *42:3 *C 33.100 2.500
*N *42:4 *C 37.700 2.500
*N *42:6 *C 33.100 2.500
*N *42:8 *C 35.300 10.275
*N *42:9 *C 37.700 2.500
*N *42:10 *C 37.700 10.300
*N *42:11 *C 37.700 17.500
*N *42:12 *C 37.700 17.500

*CAP
1 *42:1 0.200275
2 *42:2 0.200275
3 *42:3 0.200256
4 *42:4 0.200256
5 *326 0.093353
6 *42:6 0.093353
7 *437:Y 0.008670
8 *42:8 0.008670
9 *42:9 0.579623
10 *42:10 1.209564
11 *42:11 0.629941

*RES
1 *42:2 *42:1 2.193600
2 *42:3 *42:4 4.204400
3 *326 *42:6 1.814290
4 *42:8 *437:Y 0.022850
5 *42:9 *42:10 7.129200
6 *42:10 *42:11 6.580800
7 *42:11 *42:12 2.000000
8 *42:9 *42:4 2.000000
9 *42:6 *42:3 2.000000
10 *42:2 *437:Y 2.000000
11 *42:10 *42:1 2.000000
12 *42:12 *526:A 2.000000
*END

*D_NET *43 7.204799

*CONN
*P *327 O *C 35.900 0.515
*I *528:A I *C 5.300 18.895
*I *448:Y O *C 15.100 11.675
*N *43:1 *C 5.700 16.300
*N *43:2 *C 11.700 16.300
*N *43:4 *C 5.300 18.892
*N *43:5 *C 15.100 3.100
*N *43:6 *C 35.900 3.100
*N *43:7 *C 11.700 16.300
*N *43:8 *C 11.700 13.300
*N *43:9 *C 11.700 13.300
*N *43:10 *C 15.100 13.300
*N *43:11 *C 35.900 3.100
*N *43:14 *C 15.100 3.100
*N *43:15 *C 5.300 18.892
*N *43:16 *C 5.700 18.892
*N *43:17 *C 15.100 13.300
*N *43:18 *C 5.700 18.892
*N *43:19 *C 5.700 16.300

*CAP
1 *43:1 0.397257
2 *43:2 0.397257
3 *528:A 0.007139
4 *43:4 0.007139
5 *43:5 1.636491
6 *43:6 1.636491
7 *43:7 0.293174
8 *43:8 0.293174
9 *43:9 0.220495
10 *43:10 0.220495
11 *43:11 0.164341
12 *327 0.164341
13 *448:Y 0.600457
14 *43:14 0.534805
15 *43:15 0.045567
16 *43:16 0.045567
17 *43:17 0.065652
18 *43:18 0.237479
19 *43:19 0.237479

*RES
1 *43:1 *43:2 5.484000
2 *43:4 *528:A 0.002742
3 *43:5 *43:6 19.011200
4 *43:8 *43:7 2.742000
5 *43:9 *43:10 3.107600
6 *327 *43:11 2.362690
7 *43:14 *448:Y 7.837550
8 *43:15 *43:16 0.365600
9 *448:Y *43:17 1.485250
10 *43:19 *43:18 2.369088
11 *43:2 *43:7 2.000000
12 *43:10 *43:17 2.000000
13 *43:8 *43:9 2.000000
14 *43:18 *43:16 2.000000
15 *43:15 *43:4 2.000000
16 *43:11 *43:6 2.000000
17 *43:1 *43:19 2.000000
18 *43:5 *43:14 2.000000
*END

*D_NET *44 8.431527

*CONN
*P *328 O *C 38.700 0.515
*I *450:Y O *C 18.700 11.700
*I *530:B I *C 8.700 18.695
*N *44:1 *C 19.900 11.700
*N *44:2 *C 19.900 1.700
*N *44:3 *C 12.500 21.900
*N *44:4 *C 12.500 12.300
*N *44:5 *C 38.700 1.700
*N *44:7 *C 9.700 18.700
*N *44:8 *C 9.700 21.900
*N *44:9 *C 12.500 12.300
*N *44:10 *C 18.500 12.300
*N *44:12 *C 18.700 11.675
*N *44:13 *C 19.900 1.700
*N *44:14 *C 38.700 1.700
*N *44:16 *C 8.700 18.700
*N *44:17 *C 8.700 18.700
*N *44:18 *C 9.700 18.700
*N *44:19 *C 9.700 21.900
*N *44:20 *C 12.500 21.900
*N *44:21 *C 18.700 11.700
*N *44:22 *C 19.900 11.700
*N *44:23 *C 18.700 12.300
*N *44:24 *C 18.500 12.300

*CAP
1 *44:1 0.844627
2 *44:2 0.844627
3 *44:3 0.713722
4 *44:4 0.713722
5 *44:5 0.042744
6 *328 0.042744
7 *44:7 0.238908
8 *44:8 0.238908
9 *44:9 0.508865
10 *44:10 0.508865
11 *450:Y 0.042486
12 *44:12 0.004935
13 *44:13 1.415187
14 *44:14 1.415187
15 *530:B 0.007095
16 *44:16 0.007095
17 *44:17 0.094852
18 *44:18 0.094852
19 *44:19 0.190667
20 *44:20 0.190667
21 *44:21 0.107042
22 *44:22 0.107042
23 *44:23 0.047120
24 *44:24 0.009569

*RES
1 *44:2 *44:1 9.140000
2 *44:4 *44:3 8.774400
3 *328 *44:5 1.083090
4 *44:7 *44:8 2.924800
5 *44:9 *44:10 5.484000
6 *44:12 *450:Y 0.022850
7 *44:13 *44:14 17.183200
8 *530:B *44:16 0.004570
9 *44:17 *44:18 0.914000
10 *44:19 *44:20 2.559200
11 *44:21 *44:22 1.096800
12 *450:Y *44:23 0.548400
13 *44:24 *44:23 0.182800
14 *44:4 *44:9 2.000000
15 *44:19 *44:8 2.000000
16 *44:17 *44:16 2.000000
17 *44:7 *44:18 2.000000
18 *44:20 *44:3 2.000000
19 *44:1 *44:22 2.000000
20 *44:21 *450:Y 2.000000
21 *44:10 *44:24 2.000000
22 *44:5 *44:14 2.000000
23 *44:2 *44:13 2.000000
*END

*D_NET *45 8.798462

*CONN
*P *329 O *C 41.500 0.515
*I *534:B I *C 12.500 18.500
*I *359:Y O *C 8.100 5.865
*N *45:2 *C 12.500 18.695
*N *45:3 *C 41.500 3.900
*N *45:5 *C 11.900 18.500
*N *45:6 *C 12.500 18.500
*N *45:7 *C 7.500 5.900
*N *45:8 *C 7.500 7.100
*N *45:9 *C 11.900 7.100
*N *45:10 *C 11.900 18.500
*N *45:11 *C 31.900 3.900
*N *45:12 *C 41.500 3.900
*N *45:14 *C 8.100 5.900
*N *45:15 *C 8.100 5.900
*N *45:16 *C 7.500 5.900
*N *45:17 *C 31.900 6.900
*N *45:18 *C 31.900 6.685
*N *45:19 *C 31.900 6.685
*N *45:20 *C 31.900 3.900
*N *45:21 *C 29.300 7.100
*N *45:22 *C 29.300 6.900
*N *45:23 *C 11.900 7.100
*N *45:24 *C 7.500 7.100

*CAP
1 *534:B 0.010616
2 *45:2 0.010616
3 *45:3 0.113995
4 *329 0.113995
5 *45:5 0.058731
6 *45:6 0.058731
7 *45:7 0.107871
8 *45:8 0.107871
9 *45:9 0.982591
10 *45:10 0.982591
11 *45:11 0.564900
12 *45:12 0.564900
13 *359:Y 0.004595
14 *45:14 0.004595
15 *45:15 0.064753
16 *45:16 0.064753
17 *45:17 0.215994
18 *45:18 0.013756
19 *45:19 0.176015
20 *45:20 0.176015
21 *45:21 1.662922
22 *45:22 0.212163
23 *45:23 2.089244
24 *45:24 0.436247

*RES
1 *534:B *45:2 0.178230
2 *329 *45:3 3.093890
3 *45:5 *45:6 0.548400
4 *45:7 *45:8 1.096800
5 *45:9 *45:10 10.419600
6 *45:11 *45:12 8.774400
7 *359:Y *45:14 0.031990
8 *45:16 *45:15 0.548400
9 *45:18 *45:17 0.196510
10 *45:20 *45:19 2.545490
11 *45:22 *45:21 0.182800
12 *45:23 *45:21 15.903600
13 *45:24 *45:23 4.021600
14 *45:22 *45:17 2.376400
15 *45:7 *45:16 2.000000
16 *45:6 *534:B 2.000000
17 *45:24 *45:8 2.000000
18 *45:18 *45:19 2.000000
19 *45:10 *45:5 2.000000
20 *45:20 *45:11 2.000000
21 *45:23 *45:9 2.000000
22 *45:15 *45:14 2.000000
23 *45:3 *45:12 2.000000
*END

*D_NET *46 5.953153

*CONN
*P *330 O *C 2.050 43.300
*I *479:Y O *C 4.700 16.500
*I *537:A1N I *C 15.300 18.892
*N *46:1 *C 4.500 43.300
*N *46:2 *C 2.050 43.300
*N *46:3 *C 4.900 20.900
*N *46:4 *C 4.900 33.500
*N *46:5 *C 4.700 16.700
*N *46:6 *C 4.900 16.700
*N *46:7 *C 4.900 20.900
*N *46:8 *C 10.300 20.900
*N *46:10 *C 10.300 20.100
*N *46:11 *C 13.100 20.100
*N *46:12 *C 10.300 20.900
*N *46:13 *C 10.300 20.100
*N *46:14 *C 4.500 33.500
*N *46:15 *C 4.500 43.300
*N *46:16 *C 4.900 33.500
*N *46:17 *C 4.500 33.500
*N *46:18 *C 13.100 20.300
*N *46:19 *C 15.300 20.300
*N *46:21 *C 15.300 20.300
*N *46:22 *C 4.900 16.700
*N *46:23 *C 4.900 16.700

*CAP
1 *46:1 0.081344
2 *46:2 0.081344
3 *46:3 1.583065
4 *46:4 1.228570
5 *46:5 0.029312
6 *46:6 0.009569
7 *46:7 0.382851
8 *46:8 0.382851
9 *479:Y 0.019743
10 *46:10 0.267174
11 *46:11 0.276171
12 *46:12 0.068030
13 *46:13 0.068030
14 *46:14 0.315780
15 *46:15 0.315780
16 *46:16 0.024051
17 *46:17 0.024051
18 *46:18 0.149318
19 *46:19 0.075652
20 *537:A1N 0.075652
21 *46:21 0.140320
22 *46:22 0.354495

*RES
1 *46:2 *46:1 2.239300
2 *46:3 *46:4 11.516400
3 *46:5 *46:6 0.182800
4 *46:7 *46:8 4.935600
5 *479:Y *46:5 0.182800
6 *46:10 *46:11 2.559200
7 *46:13 *46:12 0.731200
8 *46:14 *46:15 8.957200
9 *46:17 *46:16 0.365600
10 *46:11 *46:18 0.182800
11 *537:A1N *46:19 1.286912
12 *46:18 *46:21 2.010800
13 *46:22 *46:3 3.838800
14 *46:21 *46:19 2.000000
15 *46:23 *46:6 2.000000
16 *46:4 *46:16 2.000000
17 *46:13 *46:10 2.000000
18 *46:17 *46:14 2.000000
19 *46:1 *46:15 2.000000
20 *46:22 *46:23 2.000000
21 *330 *46:2 2.000000
22 *46:3 *46:7 2.000000
23 *46:12 *46:8 2.000000
*END

*D_NET *47 8.305023

*CONN
*P *331 O *C 5.500 43.171
*I *489:A I *C 22.300 16.095
*I *353:Y O *C 38.100 4.675
*N *47:1 *C 5.500 38.100
*N *47:2 *C 21.300 38.100
*N *47:3 *C 21.300 25.100
*N *47:4 *C 38.100 25.100
*N *47:5 *C 22.300 16.700
*N *47:7 *C 38.100 25.100
*N *47:8 *C 38.100 6.300
*N *47:9 *C 21.300 19.900
*N *47:10 *C 21.700 19.900
*N *47:11 *C 21.700 16.700
*N *47:12 *C 22.300 16.700
*N *47:14 *C 5.500 38.100
*N *47:15 *C 21.300 25.100
*N *47:16 *C 21.700 16.700
*N *47:17 *C 21.300 38.100
*N *47:18 *C 38.100 6.300
*N *47:20 *C 38.100 6.300

*CAP
1 *47:1 0.483343
2 *47:2 0.483343
3 *47:3 0.939610
4 *47:4 0.939610
5 *47:5 0.052663
6 *489:A 0.052663
7 *47:7 1.350023
8 *47:8 1.350023
9 *47:9 0.277838
10 *47:10 0.277089
11 *47:11 0.060179
12 *47:12 0.060179
13 *331 0.170408
14 *47:14 0.170408
15 *47:15 0.747238
16 *47:16 0.262439
17 *47:17 0.484049
18 *47:18 0.071958
19 *353:Y 0.071958

*RES
1 *47:1 *47:2 14.441200
2 *47:3 *47:4 15.355200
3 *489:A *47:5 0.552970
4 *47:8 *47:7 17.183200
5 *47:9 *47:10 0.365600
6 *47:11 *47:12 0.548400
7 *47:14 *331 4.634894
8 *47:9 *47:15 4.752800
9 *47:16 *47:10 2.924800
10 *47:15 *47:17 11.882000
11 *353:Y *47:18 1.485250
12 *47:20 *47:18 2.000000
13 *47:17 *47:2 2.000000
14 *47:3 *47:15 2.000000
15 *47:14 *47:1 2.000000
16 *47:4 *47:7 2.000000
17 *47:8 *47:20 2.000000
18 *47:16 *47:11 2.000000
19 *47:12 *47:5 2.000000
*END

*D_NET *48 4.552084

*CONN
*P *332 O *C 8.700 43.171
*I *493:Y O *C 30.500 16.500
*N *48:1 *C 30.500 16.700
*N *48:3 *C 30.100 36.700
*N *48:4 *C 30.100 16.700
*N *48:5 *C 8.700 36.700
*N *48:6 *C 30.100 36.700
*N *48:7 *C 30.100 16.700
*N *48:8 *C 30.500 16.700
*N *48:10 *C 8.700 36.700

*CAP
1 *48:1 0.029723
2 *493:Y 0.029723
3 *48:3 0.890883
4 *48:4 0.890883
5 *48:5 1.102544
6 *48:6 1.102544
7 *48:7 0.041687
8 *48:8 0.041687
9 *332 0.211205
10 *48:10 0.211205

*RES
1 *493:Y *48:1 0.182800
2 *48:4 *48:3 18.280000
3 *48:5 *48:6 19.559600
4 *48:7 *48:8 0.365600
5 *48:10 *332 5.914494
6 *48:8 *48:1 2.000000
7 *48:4 *48:7 2.000000
8 *48:5 *48:10 2.000000
9 *48:6 *48:3 2.000000
*END

*D_NET *49 3.858073

*CONN
*P *333 O *C 11.875 43.300
*I *548:Y O *C 32.900 19.300
*I *496:A I *C 33.900 16.100
*N *49:1 *C 32.500 33.800
*N *49:2 *C 32.500 40.900
*N *49:3 *C 17.000 40.900
*N *49:4 *C 17.000 43.300
*N *49:5 *C 32.900 19.100
*N *49:6 *C 32.700 19.100
*N *49:8 *C 32.900 19.100
*N *49:9 *C 32.900 33.800
*N *49:10 *C 32.700 16.300
*N *49:11 *C 33.700 16.300
*N *49:13 *C 33.900 16.095
*N *49:14 *C 17.000 43.300
*N *49:15 *C 11.875 43.300
*N *49:16 *C 33.700 16.100
*N *49:17 *C 33.900 16.100
*N *49:18 *C 32.700 19.100
*N *49:19 *C 32.700 16.300
*N *49:20 *C 33.700 16.300
*N *49:21 *C 33.700 16.100
*N *49:22 *C 32.500 40.900
*N *49:23 *C 17.000 40.900

*CAP
1 *49:1 0.244933
2 *49:2 0.228985
3 *49:3 0.083437
4 *49:4 0.083437
5 *49:5 0.023727
6 *49:6 0.023727
7 *548:Y 0.495529
8 *49:8 0.011892
9 *49:9 0.499586
10 *49:10 0.080570
11 *49:11 0.080570
12 *496:A 0.004692
13 *49:13 0.004692
14 *49:14 0.156701
15 *49:15 0.156701
16 *49:16 0.023716
17 *49:17 0.023716
18 *49:18 0.282613
19 *49:19 0.282613
20 *49:20 0.030572
21 *49:21 0.030572
22 *49:22 0.502546
23 *49:23 0.502546

*RES
1 *49:1 *49:2 6.489400
2 *49:3 *49:4 2.193600
3 *49:6 *49:5 0.182800
4 *49:8 *548:Y 0.182800
5 *49:1 *49:9 0.365600
6 *49:10 *49:11 0.914000
7 *548:Y *49:9 13.253000
8 *49:13 *496:A 0.004570
9 *49:15 *49:14 4.684250
10 *49:16 *49:17 0.182800
11 *49:19 *49:18 2.559200
12 *49:21 *49:20 0.182800
13 *49:23 *49:22 14.167000
14 *49:19 *49:10 2.000000
15 *49:4 *49:14 2.000000
16 *49:3 *49:23 2.000000
17 *333 *49:15 2.000000
18 *49:22 *49:2 2.000000
19 *49:20 *49:11 2.000000
20 *49:5 *49:8 2.000000
21 *49:18 *49:6 2.000000
22 *49:21 *49:16 2.000000
23 *49:17 *496:A 2.000000
*END

*D_NET *50 9.142054

*CONN
*P *334 O *C 15.300 43.171
*I *383:Y O *C 10.300 8.100
*I *497:A1N I *C 36.300 16.092
*N *50:1 *C 36.300 16.700
*N *50:2 *C 36.300 16.500
*N *50:3 *C 14.300 33.800
*N *50:4 *C 15.300 33.800
*N *50:5 *C 36.500 16.700
*N *50:6 *C 14.700 8.500
*N *50:7 *C 14.700 24.500
*N *50:8 *C 14.300 24.500
*N *50:9 *C 36.500 24.500
*N *50:11 *C 10.100 8.100
*N *50:12 *C 10.100 8.100
*N *50:13 *C 10.300 8.100
*N *50:15 *C 36.300 16.500
*N *50:17 *C 14.300 24.500
*N *50:18 *C 10.300 8.500
*N *50:19 *C 14.700 8.500
*N *50:20 *C 36.500 24.500
*N *50:21 *C 10.300 8.100
*N *50:22 *C 10.300 8.500
*N *50:23 *C 36.300 16.500

*CAP
1 *50:1 0.032092
2 *50:2 0.021677
3 *50:3 0.390142
4 *50:4 0.348962
5 *50:5 0.761098
6 *50:6 1.316390
7 *50:7 1.331040
8 *50:8 1.191697
9 *50:9 1.191697
10 *383:Y 0.010395
11 *50:11 0.010395
12 *50:12 0.022277
13 *50:13 0.022277
14 *334 0.316733
15 *50:15 0.018339
16 *497:A1N 0.018339
17 *50:17 0.372563
18 *50:18 0.469296
19 *50:19 0.469296
20 *50:20 0.750684
21 *50:21 0.038333
22 *50:22 0.038333

*RES
1 *50:2 *50:1 0.182800
2 *50:3 *50:4 0.914000
3 *50:1 *50:5 0.182800
4 *50:6 *50:7 14.624000
5 *50:8 *50:9 20.290800
6 *50:11 *383:Y 0.182800
7 *50:12 *50:13 0.182800
8 *50:4 *334 8.565094
9 *497:A1N *50:15 0.372912
10 *50:17 *50:3 8.500200
11 *50:18 *50:19 4.021600
12 *50:17 *50:7 0.365600
13 *50:5 *50:20 7.129200
14 *50:21 *50:22 0.365600
15 *50:21 *50:13 2.000000
16 *50:2 *50:23 2.000000
17 *50:8 *50:17 2.000000
18 *50:23 *50:15 2.000000
19 *50:18 *50:22 2.000000
20 *50:12 *50:11 2.000000
21 *50:9 *50:20 2.000000
22 *50:19 *50:6 2.000000
*END

*D_NET *51 4.897144

*CONN
*P *335 O *C 18.500 43.171
*I *502:Y O *C 5.500 17.300
*N *51:1 *C 5.100 33.800
*N *51:2 *C 5.100 17.300
*N *51:4 *C 18.500 40.900
*N *51:5 *C 4.500 40.900
*N *51:6 *C 4.500 33.800
*N *51:7 *C 18.500 40.900
*N *51:8 *C 4.500 40.900
*N *51:9 *C 5.100 17.300
*N *51:10 *C 5.500 17.300

*CAP
1 *51:1 1.609700
2 *51:2 1.587278
3 *335 0.074563
4 *51:4 0.074563
5 *51:5 0.245663
6 *51:6 0.268085
7 *51:7 0.498125
8 *51:8 0.498125
9 *51:9 0.020522
10 *51:10 0.020522

*RES
1 *51:2 *51:1 15.081000
2 *51:4 *335 2.075694
3 *51:6 *51:5 6.489400
4 *51:6 *51:1 0.548400
5 *51:8 *51:7 12.796000
6 *51:9 *51:10 0.365600
7 *51:8 *51:5 2.000000
8 *51:10 *502:Y 2.000000
9 *51:7 *51:4 2.000000
10 *51:2 *51:9 2.000000
*END

*D_NET *52 5.741455

*CONN
*P *336 O *C 21.900 43.171
*I *398:Y O *C 36.500 7.892
*N *52:1 *C 35.900 8.300
*N *52:2 *C 36.500 8.300
*N *52:3 *C 35.900 15.900
*N *52:4 *C 35.700 38.100
*N *52:5 *C 35.700 15.900
*N *52:6 *C 21.900 38.100
*N *52:7 *C 35.700 38.100
*N *52:9 *C 21.900 38.100
*N *52:10 *C 36.500 7.892
*N *52:11 *C 36.500 7.892

*CAP
1 *52:1 0.595307
2 *52:2 0.063720
3 *52:3 0.581670
4 *52:4 1.489899
5 *52:5 1.503783
6 *52:6 0.555846
7 *52:7 0.555846
8 *336 0.179592
9 *52:9 0.179592
10 *52:10 0.036199

*RES
1 *52:1 *52:2 0.548400
2 *52:1 *52:3 6.946400
3 *52:5 *52:4 20.290800
4 *52:6 *52:7 12.613200
5 *52:5 *52:3 0.182800
6 *52:9 *336 4.634894
7 *52:10 *52:2 0.372912
8 *52:7 *52:4 2.000000
9 *52:10 *52:11 2.000000
10 *52:11 *398:Y 2.000000
11 *52:6 *52:9 2.000000
*END

*D_NET *53 3.260037

*CONN
*P *337 I *C 24.975 43.300
*I *582:A0 I *C 9.700 21.692
*I *583:A1N I *C 10.700 21.692
*N *53:1 *C 10.100 21.692
*N *53:2 *C 10.700 21.692
*N *53:3 *C 9.700 21.692
*N *53:5 *C 24.100 43.300
*N *53:6 *C 24.100 31.100
*N *53:7 *C 10.100 31.100
*N *53:8 *C 10.100 31.100
*N *53:9 *C 10.100 21.692
*N *53:11 *C 9.700 21.492
*N *53:12 *C 24.100 31.100

*CAP
1 *53:1 0.091247
2 *53:2 0.053187
3 *53:3 0.038060
4 *337 0.028567
5 *53:5 0.450080
6 *53:6 0.571739
7 *53:7 0.571739
8 *53:8 0.501557
9 *53:9 0.501557
10 *582:A0 0.015396
11 *53:11 0.015396
12 *53:12 0.421513

*RES
1 *53:1 *53:2 0.548400
2 *53:3 *53:1 0.365600
3 *53:5 *337 0.799750
4 *53:7 *53:6 12.796000
5 *53:9 *53:8 8.598912
6 *53:11 *582:A0 0.182800
7 *53:12 *53:5 11.150800
8 *53:7 *53:8 2.000000
9 *53:9 *53:1 2.000000
10 *53:3 *582:A0 2.000000
11 *53:2 *583:A1N 2.000000
12 *53:6 *53:12 2.000000
*END

*D_NET *54 3.902790

*CONN
*P *338 O *C 28.250 43.300
*I *584:Z O *C 12.900 22.100
*I *582:A1 I *C 9.500 21.692
*N *54:1 *C 12.900 39.900
*N *54:2 *C 12.900 24.300
*N *54:4 *C 27.700 39.900
*N *54:5 *C 12.900 39.900
*N *54:6 *C 12.900 24.300
*N *54:7 *C 9.500 24.300
*N *54:8 *C 9.500 24.300
*N *54:10 *C 27.700 43.300
*N *54:11 *C 27.700 39.900

*CAP
1 *54:1 0.528419
2 *54:2 0.675850
3 *584:Z 0.147430
4 *54:4 0.649279
5 *54:5 0.649279
6 *54:6 0.347582
7 *54:7 0.347582
8 *54:8 0.111034
9 *582:A1 0.111034
10 *54:10 0.167649
11 *54:11 0.148605
12 *338 0.019045

*RES
1 *54:2 *54:1 14.258400
2 *584:Z *54:2 2.010800
3 *54:5 *54:4 13.527200
4 *54:7 *54:6 3.107600
5 *582:A1 *54:8 2.383712
6 *54:11 *54:10 3.107600
7 *54:10 *338 0.502700
8 *54:7 *54:8 2.000000
9 *54:5 *54:1 2.000000
10 *54:6 *54:2 2.000000
11 *54:11 *54:4 2.000000
*END

*D_NET *55 4.697316

*CONN
*I *339:E I *C 3.100 4.692
*I *584:B I *C 12.700 21.692
*I *340:Y O *C 8.100 5.100
*N *55:2 *C 3.100 5.300
*N *55:3 *C 9.300 9.500
*N *55:4 *C 9.100 9.500
*N *55:5 *C 7.700 5.100
*N *55:6 *C 8.100 5.100
*N *55:7 *C 9.300 5.100
*N *55:8 *C 9.300 5.100
*N *55:9 *C 12.700 23.300
*N *55:11 *C 3.100 5.300
*N *55:12 *C 7.700 5.300
*N *55:14 *C 8.100 5.092
*N *55:15 *C 9.100 23.300
*N *55:16 *C 12.700 23.300
*N *55:17 *C 9.100 23.300

*CAP
1 *339:E 0.022583
2 *55:2 0.022583
3 *55:3 0.310854
4 *55:4 1.015653
5 *55:5 0.047564
6 *55:6 0.127697
7 *55:7 0.300152
8 *55:8 0.089129
9 *55:9 0.129261
10 *584:B 0.129261
11 *55:11 0.368684
12 *55:12 0.377681
13 *340:Y 0.007491
14 *55:14 0.007491
15 *55:15 0.368141
16 *55:16 0.368141
17 *55:17 1.004951

*RES
1 *339:E *55:2 0.555712
2 *55:4 *55:3 0.182800
3 *55:5 *55:6 0.365600
4 *55:7 *55:3 4.021600
5 *55:6 *55:8 1.096800
6 *584:B *55:9 1.469712
7 *55:11 *55:12 4.204400
8 *55:5 *55:12 0.182800
9 *55:14 *340:Y 0.007312
10 *55:15 *55:16 3.290400
11 *55:4 *55:17 12.613200
12 *55:7 *55:8 2.000000
13 *55:16 *55:9 2.000000
14 *55:11 *55:2 2.000000
15 *55:6 *340:Y 2.000000
16 *55:17 *55:15 2.000000
*END

*D_NET *56 0.052954

*CONN
*I *341:Y O *C 9.500 4.692
*I *342:E I *C 10.100 4.692
*N *56:2 *C 9.500 4.675

*CAP
1 *341:Y 0.026477
2 *56:2 0.004149
3 *342:E 0.022328

*RES
1 *56:2 *341:Y 0.015538
2 *341:Y *342:E 0.548400
*END

*D_NET *57 14.769590

*CONN
*I *517:A0 I *C 28.700 17.490
*I *492:B I *C 27.700 16.095
*I *538:AN I *C 16.900 18.500
*I *491:A0 I *C 26.300 16.095
*I *341:A1 I *C 8.700 4.700
*I *514:S0 I *C 21.100 17.300
*I *485:C I *C 17.300 16.292
*I *498:A1 I *C 38.100 15.895
*I *533:A0 I *C 12.300 18.900
*I *519:B I *C 30.100 17.500
*I *529:A0 I *C 8.500 19.092
*I *528:S0 I *C 5.500 19.092
*I *521:A0 I *C 32.500 17.300
*I *496:S0 I *C 34.100 16.292
*I *516:S0 I *C 25.700 17.100
*I *501:B0 I *C 4.900 17.500
*I *531:B I *C 9.900 18.895
*I *396:Y O *C 33.500 7.892
*I *539:A1 I *C 18.100 18.695
*I *484:A1 I *C 16.300 16.292
*I *526:S0 I *C 37.900 17.300
*I *535:B I *C 13.700 18.900
*I *523:B I *C 33.900 17.500
*I *505:B1 I *C 9.500 17.500
*I *489:S0 I *C 22.500 16.292
*N *57:2 *C 28.700 17.700
*N *57:3 *C 5.800 19.092
*N *57:4 *C 5.500 19.092
*N *57:5 *C 33.800 17.500
*N *57:6 *C 33.900 17.500
*N *57:7 *C 32.300 16.900
*N *57:8 *C 32.300 17.000
*N *57:10 *C 27.700 16.700
*N *57:11 *C 17.000 18.500
*N *57:13 *C 30.500 16.100
*N *57:14 *C 30.500 15.710
*N *57:15 *C 6.100 19.100
*N *57:16 *C 5.800 19.100
*N *57:17 *C 26.300 16.700
*N *57:20 *C 8.700 4.695
*N *57:21 *C 9.900 17.500
*N *57:22 *C 9.500 17.500
*N *57:23 *C 21.100 15.500
*N *57:25 *C 16.900 18.692
*N *57:26 *C 26.300 17.100
*N *57:27 *C 27.700 15.710
*N *57:28 *C 17.300 15.500
*N *57:30 *C 17.100 16.292
*N *57:31 *C 17.100 17.300
*N *57:32 *C 33.800 17.300
*N *57:33 *C 32.300 16.700
*N *57:34 *C 32.300 16.100
*N *57:35 *C 38.100 15.500
*N *57:37 *C 6.100 4.700
*N *57:38 *C 8.700 4.700
*N *57:39 *C 17.100 16.292
*N *57:40 *C 16.300 16.292
*N *57:41 *C 28.700 17.700
*N *57:42 *C 30.100 17.700
*N *57:43 *C 16.900 19.100
*N *57:44 *C 18.100 19.100
*N *57:46 *C 12.300 18.910
*N *57:47 *C 32.500 17.300
*N *57:48 *C 30.100 17.900
*N *57:50 *C 25.100 16.292
*N *57:51 *C 22.900 16.292
*N *57:52 *C 14.300 18.900
*N *57:53 *C 13.700 18.900
*N *57:55 *C 8.500 19.100
*N *57:56 *C 34.300 14.900
*N *57:57 *C 37.700 14.900
*N *57:58 *C 17.100 18.300
*N *57:59 *C 17.000 18.300
*N *57:60 *C 34.300 16.292
*N *57:61 *C 34.300 16.700
*N *57:63 *C 5.500 18.300
*N *57:64 *C 37.900 15.500
*N *57:65 *C 34.300 16.700
*N *57:66 *C 32.300 16.700
*N *57:67 *C 22.900 14.700
*N *57:68 *C 21.100 14.700
*N *57:69 *C 8.500 19.100
*N *57:70 *C 38.300 17.690
*N *57:71 *C 37.900 17.690
*N *57:73 *C 32.500 17.490
*N *57:74 *C 32.300 8.300
*N *57:75 *C 33.500 8.300
*N *57:76 *C 28.100 17.000
*N *57:77 *C 28.700 17.000
*N *57:78 *C 8.500 18.500
*N *57:79 *C 16.900 19.100
*N *57:81 *C 26.300 15.915
*N *57:82 *C 17.000 18.300
*N *57:83 *C 9.700 18.500
*N *57:84 *C 8.500 18.500
*N *57:85 *C 37.700 15.500
*N *57:86 *C 37.700 14.900
*N *57:87 *C 26.100 17.100
*N *57:88 *C 25.700 17.100
*N *57:89 *C 14.300 19.100
*N *57:90 *C 37.900 16.700
*N *57:92 *C 25.700 17.300
*N *57:93 *C 4.900 18.300
*N *57:95 *C 6.100 19.100
*N *57:96 *C 6.100 4.700
*N *57:97 *C 27.700 17.000
*N *57:98 *C 28.100 17.000
*N *57:99 *C 27.700 16.700
*N *57:100 *C 32.300 16.100
*N *57:101 *C 21.100 14.700
*N *57:102 *C 17.300 16.292
*N *57:103 *C 26.300 16.095
*N *57:104 *C 25.100 16.095
*N *57:106 *C 9.900 18.500
*N *57:107 *C 32.300 8.300
*N *57:108 *C 27.700 15.710
*N *57:109 *C 26.300 16.700
*N *57:110 *C 34.300 14.900
*N *57:111 *C 32.500 17.000
*N *57:112 *C 33.500 8.300
*N *57:114 *C 9.900 17.500
*N *57:115 *C 37.900 16.700
*N *57:116 *C 38.500 16.700
*N *57:117 *C 18.100 19.100
*N *57:119 *C 12.300 18.900
*N *57:120 *C 22.500 16.292
*N *57:121 *C 21.100 15.500
*N *57:122 *C 17.700 15.500
*N *57:123 *C 9.900 18.900
*N *57:124 *C 22.900 16.292
*N *57:125 *C 22.900 14.700
*N *57:126 *C 26.100 17.100
*N *57:127 *C 30.100 17.900
*N *57:128 *C 32.300 16.900
*N *57:129 *C 9.900 18.900
*N *57:130 *C 9.700 18.500
*N *57:131 *C 17.100 17.300
*N *57:133 *C 16.300 16.475
*N *57:134 *C 17.700 15.500
*N *57:136 *C 38.500 17.300
*N *57:137 *C 38.300 17.300
*N *57:138 *C 38.500 16.700
*N *57:140 *C 13.700 18.895

*CAP
1 *517:A0 0.089170
2 *57:2 0.030714
3 *57:3 0.037857
4 *57:4 0.034618
5 *57:5 0.016201
6 *57:6 0.007204
7 *57:7 0.014901
8 *57:8 0.026021
9 *492:B 0.045894
10 *57:10 0.024079
11 *57:11 0.018870
12 *538:AN 0.020122
13 *57:13 0.150112
14 *57:14 0.221944
15 *57:15 0.253987
16 *57:16 0.032613
17 *57:17 0.055843
18 *491:A0 0.055456
19 *341:A1 0.004592
20 *57:20 0.004592
21 *57:21 0.040674
22 *57:22 0.040674
23 *57:23 0.202445
24 *514:S0 0.140625
25 *57:25 0.048071
26 *57:26 0.030872
27 *57:27 0.021815
28 *57:28 0.064723
29 *485:C 0.048775
30 *57:30 0.070773
31 *57:31 0.070773
32 *57:32 0.097685
33 *57:33 0.063476
34 *57:34 0.777534
35 *57:35 0.030756
36 *498:A1 0.021187
37 *57:37 0.198748
38 *57:38 0.198748
39 *57:39 0.095583
40 *57:40 0.070758
41 *57:41 0.127694
42 *57:42 0.143578
43 *57:43 0.309619
44 *57:44 0.117953
45 *533:A0 0.004164
46 *57:46 0.004164
47 *57:47 0.088687
48 *57:48 0.044663
49 *519:B 0.044663
50 *57:50 0.187141
51 *57:51 0.219711
52 *57:52 0.072426
53 *57:53 0.201697
54 *529:A0 0.048304
55 *57:55 0.008068
56 *57:56 0.171859
57 *57:57 0.171859
58 *57:58 0.043731
59 *57:59 0.005873
60 *57:60 0.084143
61 *57:61 0.016429
62 *528:S0 0.034402
63 *57:63 0.056730
64 *57:64 0.094744
65 *57:65 0.165634
66 *57:66 0.184367
67 *57:67 0.151353
68 *57:68 0.151353
69 *57:69 0.224613
70 *57:70 0.038796
71 *57:71 0.034892
72 *521:A0 0.051503
73 *57:73 0.021663
74 *57:74 0.077704
75 *57:75 0.077704
76 *57:76 0.022328
77 *57:77 0.080784
78 *57:78 0.040237
79 *57:79 0.034457
80 *496:S0 0.009569
81 *57:81 0.020916
82 *57:82 0.012362
83 *57:83 0.119545
84 *57:84 0.119545
85 *57:85 0.057674
86 *57:86 0.048105
87 *57:87 0.047111
88 *57:88 0.047111
89 *57:89 0.200663
90 *57:90 0.075606
91 *516:S0 0.029723
92 *57:92 0.029723
93 *57:93 0.067213
94 *501:B0 0.044885
95 *57:95 1.312071
96 *57:96 1.312071
97 *57:97 0.036396
98 *57:98 0.024400
99 *57:99 0.096944
100 *57:100 0.135416
101 *57:101 0.061820
102 *57:102 0.024825
103 *57:103 0.105768
104 *57:104 0.114675
105 *531:B 0.042142
106 *57:106 0.124958
107 *57:107 0.714057
108 *57:108 0.207249
109 *57:109 0.084948
110 *57:110 0.058145
111 *57:111 0.040961
112 *57:112 0.021963
113 *396:Y 0.021963
114 *57:114 0.079074
115 *57:115 0.054806
116 *57:116 0.054806
117 *57:117 0.043731
118 *539:A1 0.043731
119 *57:119 0.327040
120 *57:120 0.041478
121 *57:121 0.340637
122 *57:122 0.340637
123 *57:123 0.188773
124 *57:124 0.172427
125 *57:125 0.172427
126 *57:126 0.009569
127 *57:127 0.015884
128 *57:128 0.018733
129 *57:129 0.007283
130 *57:130 0.011025
131 *57:131 0.037858
132 *484:A1 0.018533
133 *57:133 0.018533
134 *57:134 0.015949
135 *526:S0 0.018301
136 *57:136 0.045381
137 *57:137 0.031148
138 *57:138 0.036438
139 *535:B 0.007843
140 *57:140 0.007843

*RES
1 *517:A0 *57:2 0.191940
2 *57:4 *57:3 0.274200
3 *57:5 *57:6 0.091400
4 *57:7 *57:8 0.091400
5 *492:B *57:10 0.552970
6 *538:AN *57:11 0.091400
7 *57:14 *57:13 0.356460
8 *57:16 *57:15 0.274200
9 *491:A0 *57:17 0.552970
10 *57:20 *341:A1 0.004570
11 *57:22 *57:21 0.365600
12 *57:23 *514:S0 1.645200
13 *538:AN *57:25 0.175488
14 *57:17 *57:26 0.365600
15 *57:27 *492:B 0.351890
16 *57:28 *485:C 0.723888
17 *57:30 *57:31 0.921312
18 *57:32 *57:5 0.182800
19 *57:34 *57:33 0.548400
20 *57:35 *498:A1 0.361030
21 *57:37 *57:38 2.376400
22 *57:40 *57:39 0.731200
23 *57:41 *57:42 1.279600
24 *57:43 *57:44 1.096800
25 *533:A0 *57:46 0.009140
26 *57:47 *57:32 1.188200
27 *519:B *57:48 0.365600
28 *57:51 *57:50 2.010800
29 *57:53 *57:52 0.548400
30 *529:A0 *57:55 0.007312
31 *57:56 *57:57 3.107600
32 *57:59 *57:58 0.091400
33 *57:60 *57:61 0.372912
34 *57:63 *528:S0 0.723888
35 *57:64 *57:35 0.182800
36 *57:66 *57:65 1.828000
37 *57:68 *57:67 1.645200
38 *57:15 *57:69 2.193600
39 *57:71 *57:70 0.365600
40 *521:A0 *57:73 0.173660
41 *57:74 *57:75 1.096800
42 *57:76 *57:77 0.548400
43 *57:78 *529:A0 0.541088
44 *57:25 *57:79 0.372912
45 *496:S0 *57:60 0.182800
46 *57:81 *491:A0 0.164520
47 *57:82 *57:11 0.182800
48 *57:84 *57:83 1.096800
49 *57:85 *57:64 0.182800
50 *57:86 *57:85 0.548400
51 *57:88 *57:87 0.365600
52 *57:52 *57:89 0.182800
53 *57:3 *57:16 0.007312
54 *57:64 *57:90 1.096800
55 *516:S0 *57:92 0.182800
56 *501:B0 *57:93 0.731200
57 *57:96 *57:95 13.161600
58 *57:77 *517:A0 0.447860
59 *57:97 *57:98 0.365600
60 *57:99 *57:97 0.274200
61 *57:13 *57:100 1.645200
62 *57:101 *57:23 0.731200
63 *57:39 *57:102 0.182800
64 *57:104 *57:103 1.096800
65 *57:106 *531:B 0.361030
66 *57:107 *57:34 7.129200
67 *57:89 *57:43 2.376400
68 *57:108 *57:14 2.559200
69 *57:109 *57:99 1.279600
70 *57:110 *57:60 1.272288
71 *57:111 *521:A0 0.274200
72 *396:Y *57:112 0.372912
73 *57:114 *57:106 0.914000
74 *57:115 *57:116 0.548400
75 *539:A1 *57:117 0.370170
76 *57:8 *57:111 0.182800
77 *57:104 *57:50 0.180058
78 *57:119 *57:53 1.279600
79 *57:120 *57:51 0.365600
80 *57:122 *57:121 3.107600
81 *57:93 *57:63 0.548400
82 *57:123 *57:119 2.193600
83 *57:125 *57:124 1.455088
84 *57:126 *57:26 0.182800
85 *57:42 *57:127 0.182800
86 *57:66 *57:128 0.182800
87 *531:B *57:129 0.004570
88 *57:130 *57:106 0.182800
89 *57:131 *57:58 0.914000
90 *484:A1 *57:133 0.167262
91 *57:28 *57:134 0.365600
92 *526:S0 *57:71 0.356460
93 *57:137 *57:136 0.182800
94 *57:137 *57:70 0.356460
95 *57:138 *57:136 0.548400
96 *57:140 *535:B 0.004570
97 *57:125 *57:67 2.000000
98 *57:31 *57:131 2.000000
99 *57:96 *57:37 2.000000
100 *57:122 *57:134 2.000000
101 *57:43 *57:79 2.000000
102 *57:83 *57:130 2.000000
103 *57:109 *57:17 2.000000
104 *57:121 *57:23 2.000000
105 *57:127 *57:48 2.000000
106 *57:123 *57:129 2.000000
107 *57:41 *57:2 2.000000
108 *57:56 *57:110 2.000000
109 *57:119 *533:A0 2.000000
110 *57:87 *57:126 2.000000
111 *57:107 *57:74 2.000000
112 *57:6 *523:B 2.000000
113 *57:88 *516:S0 2.000000
114 *57:57 *57:86 2.000000
115 *57:128 *57:7 2.000000
116 *57:4 *528:S0 2.000000
117 *57:59 *57:82 2.000000
118 *57:99 *57:10 2.000000
119 *57:65 *57:61 2.000000
120 *57:98 *57:76 2.000000
121 *57:68 *57:101 2.000000
122 *57:30 *57:39 2.000000
123 *57:108 *57:27 2.000000
124 *57:84 *57:78 2.000000
125 *57:69 *57:55 2.000000
126 *57:95 *57:15 2.000000
127 *57:53 *535:B 2.000000
128 *57:34 *57:100 2.000000
129 *57:47 *521:A0 2.000000
130 *57:22 *505:B1 2.000000
131 *57:33 *57:66 2.000000
132 *57:116 *57:138 2.000000
133 *57:102 *485:C 2.000000
134 *57:103 *491:A0 2.000000
135 *57:115 *57:90 2.000000
136 *57:40 *484:A1 2.000000
137 *57:44 *57:117 2.000000
138 *57:124 *57:51 2.000000
139 *57:21 *57:114 2.000000
140 *57:38 *341:A1 2.000000
141 *57:75 *57:112 2.000000
142 *57:120 *489:S0 2.000000
*END

*D_NET *58 4.544107

*CONN
*I *584:AN I *C 12.300 21.700
*I *343:Q O *C 18.500 4.900
*I *583:B0 I *C 11.700 21.700
*I *580:A0 I *C 7.100 21.692
*N *58:2 *C 12.300 21.510
*N *58:4 *C 18.500 5.092
*N *58:5 *C 11.100 21.700
*N *58:6 *C 11.700 21.700
*N *58:7 *C 17.000 5.300
*N *58:8 *C 17.000 4.900
*N *58:9 *C 11.100 21.300
*N *58:10 *C 11.100 21.700
*N *58:11 *C 7.100 21.300
*N *58:12 *C 7.300 21.300
*N *58:13 *C 7.300 21.300
*N *58:14 *C 11.100 21.300
*N *58:15 *C 18.500 4.900
*N *58:16 *C 12.300 21.700
*N *58:18 *C 11.700 21.695
*N *58:19 *C 14.300 21.700
*N *58:20 *C 14.300 21.700
*N *58:21 *C 14.300 5.300
*N *58:23 *C 14.300 5.300

*CAP
1 *584:AN 0.013203
2 *58:2 0.013203
3 *343:Q 0.010226
4 *58:4 0.010226
5 *58:5 0.064063
6 *58:6 0.127847
7 *58:7 0.280075
8 *58:8 0.157552
9 *58:9 0.021497
10 *58:10 0.021497
11 *58:11 0.028091
12 *58:12 0.010211
13 *58:13 0.219516
14 *58:14 0.219516
15 *58:15 0.139299
16 *58:16 0.223265
17 *583:B0 0.006242
18 *58:18 0.006242
19 *58:19 0.159481
20 *58:20 1.266577
21 *58:21 1.266577
22 *580:A0 0.017879
23 *58:23 0.261823

*RES
1 *58:2 *584:AN 0.173660
2 *343:Q *58:4 0.175488
3 *58:5 *58:6 0.548400
4 *58:8 *58:7 0.365600
5 *58:9 *58:10 0.365600
6 *58:11 *58:12 0.182800
7 *58:13 *58:14 3.473200
8 *58:8 *58:15 1.371000
9 *58:6 *58:16 0.548400
10 *58:18 *583:B0 0.004570
11 *58:16 *58:19 1.828000
12 *58:21 *58:20 14.989600
13 *58:11 *580:A0 0.358288
14 *58:23 *58:7 2.467800
15 *58:16 *584:AN 2.000000
16 *58:5 *58:10 2.000000
17 *58:6 *583:B0 2.000000
18 *58:21 *58:23 2.000000
19 *58:15 *343:Q 2.000000
20 *58:20 *58:19 2.000000
21 *58:13 *58:12 2.000000
22 *58:14 *58:9 2.000000
*END

*D_NET *59 4.060553

*CONN
*I *343:D I *C 14.700 4.700
*I *579:Y O *C 6.100 21.892
*N *59:2 *C 14.700 4.695
*N *59:3 *C 6.100 21.100
*N *59:4 *C 6.300 21.100
*N *59:5 *C 8.700 17.700
*N *59:6 *C 8.700 17.300
*N *59:7 *C 8.900 5.500
*N *59:8 *C 9.100 5.500
*N *59:9 *C 9.100 4.700
*N *59:10 *C 8.900 17.300
*N *59:11 *C 6.300 17.700
*N *59:12 *C 8.700 17.700
*N *59:14 *C 9.100 4.700
*N *59:15 *C 14.700 4.700
*N *59:16 *C 8.700 17.300
*N *59:17 *C 8.900 17.300
*N *59:18 *C 6.300 17.700

*CAP
1 *343:D 0.007843
2 *59:2 0.007843
3 *59:3 0.058205
4 *59:4 0.175820
5 *59:5 0.031961
6 *59:6 0.031961
7 *59:7 1.138997
8 *59:8 0.075904
9 *59:9 0.067114
10 *59:10 1.130207
11 *59:11 0.222201
12 *59:12 0.222201
13 *579:Y 0.046794
14 *59:14 0.322238
15 *59:15 0.322238
16 *59:16 0.017307
17 *59:17 0.017307
18 *59:18 0.164409

*RES
1 *59:2 *343:D 0.004570
2 *59:3 *59:4 0.182800
3 *59:6 *59:5 0.365600
4 *59:7 *59:8 0.182800
5 *59:9 *59:8 0.731200
6 *59:7 *59:10 10.785200
7 *59:11 *59:12 2.193600
8 *59:3 *579:Y 0.723888
9 *59:14 *59:15 5.118400
10 *59:16 *59:17 0.182800
11 *59:18 *59:4 3.107600
12 *59:15 *343:D 2.000000
13 *59:10 *59:17 2.000000
14 *59:16 *59:6 2.000000
15 *59:11 *59:18 2.000000
16 *59:12 *59:5 2.000000
17 *59:9 *59:14 2.000000
*END

*D_NET *60 9.207805

*CONN
*I *341:A0 I *C 8.300 4.895
*I *344:Q O *C 22.900 5.100
*I *580:B0 I *C 7.500 21.900
*I *340:A I *C 7.700 4.675
*I *569:AN I *C 27.700 20.300
*I *572:B1 I *C 34.900 20.100
*I *568:B I *C 27.100 20.300
*N *60:2 *C 8.300 4.675
*N *60:4 *C 22.900 5.092
*N *60:5 *C 8.300 5.300
*N *60:6 *C 12.700 5.300
*N *60:7 *C 8.300 5.300
*N *60:8 *C 27.100 20.300
*N *60:9 *C 26.700 20.300
*N *60:10 *C 34.300 20.700
*N *60:11 *C 34.300 20.100
*N *60:13 *C 7.500 21.875
*N *60:14 *C 26.700 19.900
*N *60:15 *C 27.900 20.300
*N *60:16 *C 27.900 20.900
*N *60:17 *C 22.900 5.300
*N *60:18 *C 22.900 5.100
*N *60:19 *C 30.500 20.900
*N *60:20 *C 30.500 20.700
*N *60:22 *C 7.700 4.895
*N *60:23 *C 17.700 5.100
*N *60:24 *C 17.700 5.700
*N *60:26 *C 17.700 5.100
*N *60:27 *C 23.100 19.900
*N *60:28 *C 23.100 5.300
*N *60:29 *C 22.700 19.900
*N *60:30 *C 17.700 5.700
*N *60:31 *C 12.700 5.700
*N *60:32 *C 7.500 25.100
*N *60:33 *C 7.500 21.900
*N *60:34 *C 34.300 20.100
*N *60:35 *C 34.900 20.100
*N *60:36 *C 30.500 20.700
*N *60:37 *C 34.300 20.700
*N *60:38 *C 27.700 20.300
*N *60:39 *C 27.900 20.900
*N *60:40 *C 30.500 20.900
*N *60:41 *C 17.000 24.900
*N *60:42 *C 17.000 25.100
*N *60:43 *C 22.700 24.900
*N *60:44 *C 23.100 19.900
*N *60:45 *C 23.100 5.300
*N *60:47 *C 34.900 20.300
*N *60:48 *C 22.700 24.900
*N *60:49 *C 17.000 24.900
*N *60:50 *C 17.000 25.100
*N *60:51 *C 7.500 25.100
*N *60:52 *C 7.500 21.900
*N *60:53 *C 8.300 5.300
*N *60:54 *C 8.300 5.300

*CAP
1 *341:A0 0.033397
2 *60:2 0.031419
3 *344:Q 0.007107
4 *60:4 0.007107
5 *60:5 0.024305
6 *60:6 0.386343
7 *60:7 0.366095
8 *60:8 0.083462
9 *60:9 0.052123
10 *60:10 0.046380
11 *60:11 0.046380
12 *580:B0 0.004706
13 *60:13 0.004706
14 *60:14 0.297266
15 *60:15 0.041129
16 *60:16 0.031560
17 *60:17 0.032246
18 *60:18 0.353783
19 *60:19 0.019828
20 *60:20 0.019828
21 *340:A 0.034665
22 *60:22 0.012337
23 *60:23 0.070220
24 *60:24 0.070220
25 *569:AN 0.009569
26 *60:26 0.344785
27 *60:27 1.001317
28 *60:28 0.980294
29 *60:29 0.259167
30 *60:30 0.454585
31 *60:31 0.474833
32 *60:32 0.171918
33 *60:33 0.171918
34 *60:34 0.052265
35 *60:35 0.052265
36 *60:36 0.322405
37 *60:37 0.322405
38 *60:38 0.049777
39 *60:39 0.197889
40 *60:40 0.197889
41 *60:41 0.013884
42 *60:42 0.013884
43 *60:43 0.238144
44 *60:44 0.278827
45 *60:45 0.023249
46 *572:B1 0.012720
47 *60:47 0.012720
48 *60:48 0.247010
49 *60:49 0.247010
50 *60:50 0.490231
51 *60:51 0.490231

*RES
1 *60:2 *341:A0 0.201080
2 *60:4 *344:Q 0.007312
3 *341:A0 *60:5 0.370170
4 *60:7 *60:6 4.021600
5 *60:9 *60:8 0.365600
6 *60:11 *60:10 0.548400
7 *60:13 *580:B0 0.022850
8 *60:14 *60:9 0.365600
9 *60:15 *60:16 0.548400
10 *60:18 *60:17 0.182800
11 *60:20 *60:19 0.182800
12 *340:A *60:22 0.201080
13 *60:23 *60:24 0.548400
14 *569:AN *60:15 0.182800
15 *60:26 *60:18 4.752800
16 *60:28 *60:27 13.344400
17 *60:29 *60:27 0.365600
18 *60:31 *60:30 4.570000
19 *60:33 *60:32 2.924800
20 *60:34 *60:35 0.548400
21 *60:36 *60:37 3.473200
22 *60:8 *60:38 0.548400
23 *60:6 *60:31 0.365600
24 *60:39 *60:40 2.376400
25 *60:41 *60:42 0.182800
26 *60:29 *60:43 4.570000
27 *60:44 *60:14 3.290400
28 *60:17 *60:45 0.182800
29 *572:B1 *60:47 0.182800
30 *60:49 *60:48 5.209800
31 *340:A *60:2 0.548400
32 *60:51 *60:50 8.683000
33 *60:52 *580:B0 2.000000
34 *60:41 *60:49 2.000000
35 *60:27 *60:44 2.000000
36 *60:36 *60:20 2.000000
37 *60:7 *60:53 2.000000
38 *60:51 *60:32 2.000000
39 *60:53 *60:54 2.000000
40 *60:54 *60:5 2.000000
41 *60:18 *344:Q 2.000000
42 *60:11 *60:34 2.000000
43 *60:39 *60:16 2.000000
44 *60:30 *60:24 2.000000
45 *60:37 *60:10 2.000000
46 *60:35 *572:B1 2.000000
47 *60:19 *60:40 2.000000
48 *60:23 *60:26 2.000000
49 *60:38 *569:AN 2.000000
50 *60:28 *60:45 2.000000
51 *60:50 *60:42 2.000000
52 *60:43 *60:48 2.000000
53 *60:8 *568:B 2.000000
54 *60:33 *60:52 2.000000
*END

*D_NET *61 4.253376

*CONN
*I *581:Y O *C 8.500 21.492
*I *344:D I *C 19.100 4.695
*N *61:1 *C 8.500 21.100
*N *61:2 *C 8.300 21.100
*N *61:3 *C 8.300 20.300
*N *61:4 *C 7.300 20.300
*N *61:5 *C 7.300 3.900
*N *61:6 *C 7.300 3.900
*N *61:7 *C 19.100 3.900
*N *61:8 *C 8.300 20.300
*N *61:9 *C 7.300 20.300
*N *61:11 *C 19.100 3.900

*CAP
1 *61:1 0.027773
2 *61:2 0.060789
3 *61:3 0.051026
4 *61:4 1.252926
5 *61:5 1.252926
6 *61:6 0.666172
7 *61:7 0.666172
8 *61:8 0.090490
9 *61:9 0.090490
10 *581:Y 0.018011
11 *61:11 0.038300
12 *344:D 0.038300

*RES
1 *61:2 *61:1 0.182800
2 *61:3 *61:2 0.731200
3 *61:5 *61:4 14.989600
4 *61:6 *61:7 10.785200
5 *61:9 *61:8 0.914000
6 *61:1 *581:Y 0.358288
7 *61:11 *344:D 0.726630
8 *61:5 *61:6 2.000000
9 *61:7 *61:11 2.000000
10 *61:8 *61:3 2.000000
11 *61:4 *61:9 2.000000
*END

*D_NET *62 5.968102

*CONN
*I *404:B I *C 10.900 9.100
*I *541:A I *C 20.500 18.900
*I *345:B I *C 23.300 5.092
*I *346:Q O *C 29.300 5.092
*I *486:A I *C 18.700 15.915
*N *62:2 *C 10.900 9.500
*N *62:3 *C 19.700 15.915
*N *62:4 *C 19.700 16.100
*N *62:5 *C 28.300 4.700
*N *62:6 *C 28.900 4.700
*N *62:8 *C 20.500 18.895
*N *62:9 *C 18.300 9.300
*N *62:10 *C 18.300 15.915
*N *62:11 *C 23.300 4.710
*N *62:13 *C 28.300 4.710
*N *62:14 *C 20.100 16.100
*N *62:15 *C 10.900 9.500
*N *62:16 *C 10.300 9.500
*N *62:17 *C 20.100 16.100
*N *62:18 *C 20.100 18.900
*N *62:19 *C 29.300 4.500
*N *62:21 *C 20.100 18.900
*N *62:22 *C 20.500 18.900
*N *62:23 *C 18.700 15.915
*N *62:24 *C 10.300 9.500
*N *62:25 *C 10.300 9.300
*N *62:26 *C 18.300 15.915
*N *62:27 *C 28.900 4.500
*N *62:28 *C 29.300 4.500
*N *62:29 *C 19.700 9.300
*N *62:30 *C 19.700 9.100
*N *62:32 *C 18.700 16.092
*N *62:33 *C 19.700 9.100
*N *62:34 *C 19.700 4.710
*N *62:35 *C 18.300 9.300
*N *62:36 *C 10.300 9.300
*N *62:37 *C 19.700 4.710
*N *62:38 *C 23.300 4.710

*CAP
1 *404:B 0.017914
2 *62:2 0.017914
3 *62:3 0.083002
4 *62:4 0.051575
5 *62:5 0.048258
6 *62:6 0.053957
7 *541:A 0.010403
8 *62:8 0.010403
9 *62:9 0.579329
10 *62:10 0.579329
11 *62:11 0.037875
12 *345:B 0.037875
13 *62:13 0.361952
14 *62:14 0.043028
15 *62:15 0.043140
16 *62:16 0.043140
17 *62:17 0.216840
18 *62:18 0.216840
19 *62:19 0.050270
20 *346:Q 0.050270
21 *62:21 0.047111
22 *62:22 0.047111
23 *62:23 0.109247
24 *62:24 0.028372
25 *62:25 0.028372
26 *62:26 0.034793
27 *62:27 0.047556
28 *62:28 0.039625
29 *62:29 0.150446
30 *62:30 0.013101
31 *486:A 0.019212
32 *62:32 0.019212
33 *62:33 0.416497
34 *62:34 0.416497
35 *62:35 0.712175
36 *62:36 0.574831
37 *62:37 0.175453
38 *62:38 0.535174

*RES
1 *404:B *62:2 0.365600
2 *62:3 *62:4 0.169090
3 *62:5 *62:6 0.548400
4 *62:8 *541:A 0.004570
5 *62:9 *62:10 6.046110
6 *62:11 *345:B 0.349148
7 *62:5 *62:13 0.009140
8 *62:4 *62:14 0.365600
9 *62:16 *62:15 0.548400
10 *62:17 *62:18 2.559200
11 *62:19 *346:Q 0.541088
12 *62:21 *62:22 0.365600
13 *62:23 *62:3 0.914000
14 *62:25 *62:24 0.182800
15 *62:26 *62:23 0.365600
16 *62:27 *62:28 0.365600
17 *62:30 *62:29 0.182800
18 *486:A *62:32 0.161778
19 *62:34 *62:33 4.012460
20 *62:35 *62:29 1.279600
21 *62:27 *62:6 0.182800
22 *62:36 *62:35 7.312000
23 *62:37 *62:38 3.290400
24 *62:38 *62:13 4.570000
25 *62:28 *62:19 2.000000
26 *62:24 *62:16 2.000000
27 *62:10 *62:26 2.000000
28 *62:36 *62:25 2.000000
29 *62:22 *541:A 2.000000
30 *62:30 *62:33 2.000000
31 *62:34 *62:37 2.000000
32 *62:15 *62:2 2.000000
33 *62:38 *62:11 2.000000
34 *62:17 *62:14 2.000000
35 *62:23 *486:A 2.000000
36 *62:18 *62:21 2.000000
37 *62:35 *62:9 2.000000
*END

*D_NET *63 9.961585

*CONN
*I *430:CK I *C 15.500 10.492
*I *408:CK I *C 18.900 9.100
*I *431:CK I *C 19.900 10.300
*I *386:CK I *C 16.100 7.692
*I *346:CK I *C 25.300 4.892
*I *441:CK I *C 3.100 11.900
*I *459:CK I *C 3.100 13.292
*I *367:CK I *C 22.100 6.300
*I *339:ECK I *C 6.900 5.125
*I *366:CK I *C 17.700 6.300
*I *385:CK I *C 11.700 7.692
*I *407:CK I *C 14.500 9.100
*I *377:CK I *C 34.300 6.300
*I *452:CK I *C 21.100 11.900
*I *400:CK I *C 3.100 9.100
*I *456:CK I *C 31.500 11.900
*I *453:CK I *C 25.500 11.900
*N *63:1 *C 15.500 7.300
*N *63:2 *C 16.100 7.300
*N *63:3 *C 17.700 6.300
*N *63:4 *C 22.100 6.300
*N *63:5 *C 6.700 9.100
*N *63:6 *C 6.700 7.100
*N *63:7 *C 15.500 9.100
*N *63:9 *C 32.700 11.700
*N *63:10 *C 32.700 6.900
*N *63:11 *C 19.900 11.900
*N *63:12 *C 21.100 11.900
*N *63:13 *C 6.900 7.100
*N *63:14 *C 25.500 11.900
*N *63:15 *C 17.700 7.300
*N *63:16 *C 32.700 6.900
*N *63:17 *C 34.300 6.900
*N *63:18 *C 14.500 7.300
*N *63:20 *C 18.900 10.300
*N *63:21 *C 7.100 7.100
*N *63:22 *C 7.100 7.300
*N *63:24 *C 19.900 10.492
*N *63:25 *C 15.500 7.300
*N *63:26 *C 31.500 11.900
*N *63:27 *C 22.100 5.700
*N *63:28 *C 25.300 5.700
*N *63:29 *C 16.100 7.300
*N *63:31 *C 25.300 5.700
*N *63:33 *C 15.500 9.100
*N *63:34 *C 18.900 9.100
*N *63:35 *C 3.700 9.100
*N *63:36 *C 3.100 9.100
*N *63:37 *C 3.700 11.900
*N *63:38 *C 3.700 9.100
*N *63:39 *C 34.300 6.900
*N *63:40 *C 34.300 6.300
*N *63:41 *C 18.900 10.300
*N *63:42 *C 19.900 10.300
*N *63:43 *C 31.500 11.700
*N *63:44 *C 11.700 7.300
*N *63:47 *C 3.100 11.900
*N *63:48 *C 3.700 11.900
*N *63:50 *C 22.100 5.700
*N *63:52 *C 17.700 7.300
*N *63:54 *C 32.700 11.700
*N *63:55 *C 19.900 11.900
*N *63:56 *C 6.900 7.100
*N *63:57 *C 6.700 9.100
*N *63:58 *C 11.700 7.300
*N *63:60 *C 14.500 7.300
*N *63:62 *C 34.300 6.300

*CAP
1 *63:1 0.167635
2 *63:2 0.195119
3 *63:3 0.237466
4 *63:4 0.237466
5 *63:5 0.082097
6 *63:6 0.091666
7 *63:7 0.159557
8 *430:CK 0.071311
9 *63:9 0.491169
10 *63:10 0.491169
11 *63:11 0.102007
12 *63:12 0.509076
13 *63:13 0.157987
14 *63:14 0.864773
15 *63:15 0.124974
16 *63:16 0.118945
17 *63:17 0.118945
18 *63:18 0.314048
19 *408:CK 0.060020
20 *63:20 0.060020
21 *63:21 0.033289
22 *63:22 0.329159
23 *431:CK 0.028931
24 *63:24 0.163713
25 *63:25 0.088246
26 *63:26 0.466701
27 *63:27 0.328439
28 *63:28 0.328439
29 *63:29 0.016663
30 *386:CK 0.016663
31 *63:31 0.061449
32 *346:CK 0.061449
33 *63:33 0.253115
34 *63:34 0.253115
35 *63:35 0.186152
36 *63:36 0.039326
37 *63:37 0.205870
38 *63:38 0.205870
39 *63:39 0.052009
40 *63:40 0.052009
41 *63:41 0.110948
42 *63:42 0.110948
43 *63:43 0.107453
44 *63:44 0.536476
45 *441:CK 0.077052
46 *459:CK 0.077052
47 *63:47 0.063491
48 *63:48 0.063491
49 *367:CK 0.029526
50 *63:50 0.029526
51 *339:ECK 0.148418
52 *63:52 0.077294
53 *366:CK 0.077294
54 *63:54 0.098456
55 *63:55 0.134782
56 *63:56 0.024048
57 *63:57 0.146826
58 *63:58 0.034175
59 *385:CK 0.034175
60 *63:60 0.077049
61 *407:CK 0.077049

*RES
1 *63:1 *63:2 0.548400
2 *63:3 *63:4 4.021600
3 *63:6 *63:5 1.828000
4 *63:7 *430:CK 1.272288
5 *63:10 *63:9 4.387200
6 *63:11 *63:12 1.096800
7 *63:6 *63:13 0.182800
8 *63:12 *63:14 4.021600
9 *63:2 *63:15 1.462400
10 *63:16 *63:17 1.462400
11 *63:18 *63:1 0.914000
12 *408:CK *63:20 1.096800
13 *63:21 *63:22 0.182800
14 *431:CK *63:24 0.175488
15 *63:25 *63:7 1.645200
16 *63:14 *63:26 5.484000
17 *63:27 *63:28 2.924800
18 *63:29 *386:CK 0.358288
19 *346:CK *63:31 0.738512
20 *63:33 *63:34 3.107600
21 *63:36 *63:35 0.548400
22 *63:38 *63:37 2.559200
23 *63:40 *63:39 0.548400
24 *63:41 *63:42 0.914000
25 *63:43 *63:26 0.182800
26 *63:22 *63:44 4.204400
27 *441:CK *459:CK 1.272288
28 *63:47 *63:48 0.548400
29 *63:50 *367:CK 0.548400
30 *339:ECK *63:13 1.805150
31 *366:CK *63:52 0.914000
32 *63:43 *63:54 1.096800
33 *63:24 *63:55 1.286912
34 *63:56 *63:21 0.182800
35 *63:35 *63:57 2.742000
36 *63:58 *385:CK 0.358288
37 *63:60 *407:CK 1.645200
38 *63:44 *63:18 2.559200
39 *63:11 *63:55 2.000000
40 *63:4 *367:CK 2.000000
41 *63:56 *63:13 2.000000
42 *63:9 *63:54 2.000000
43 *63:57 *63:5 2.000000
44 *63:40 *63:62 2.000000
45 *63:44 *63:58 2.000000
46 *63:38 *63:35 2.000000
47 *63:42 *431:CK 2.000000
48 *63:27 *63:50 2.000000
49 *63:1 *63:25 2.000000
50 *63:18 *63:60 2.000000
51 *63:41 *63:20 2.000000
52 *63:17 *63:39 2.000000
53 *63:62 *377:CK 2.000000
54 *63:47 *441:CK 2.000000
55 *63:16 *63:10 2.000000
56 *63:12 *452:CK 2.000000
57 *63:28 *63:31 2.000000
58 *63:2 *63:29 2.000000
59 *63:36 *400:CK 2.000000
60 *63:3 *366:CK 2.000000
61 *63:37 *63:48 2.000000
62 *63:34 *408:CK 2.000000
63 *63:26 *456:CK 2.000000
64 *63:14 *453:CK 2.000000
65 *63:15 *63:52 2.000000
66 *63:33 *63:7 2.000000
*END

*D_NET *64 3.972334

*CONN
*I *366:Q O *C 21.700 6.100
*I *347:B I *C 30.100 4.465
*I *542:A I *C 22.500 18.895
*I *348:B I *C 31.100 4.892
*N *64:1 *C 21.700 7.300
*N *64:2 *C 21.300 7.300
*N *64:4 *C 21.700 3.900
*N *64:6 *C 30.100 4.692
*N *64:7 *C 31.100 4.465
*N *64:8 *C 21.700 7.300
*N *64:9 *C 22.500 19.500
*N *64:11 *C 30.100 3.900
*N *64:12 *C 21.300 19.500
*N *64:13 *C 22.500 19.500
*N *64:14 *C 21.700 3.900
*N *64:15 *C 30.100 3.900
*N *64:16 *C 21.300 7.300
*N *64:17 *C 21.300 19.500

*CAP
1 *64:1 0.036758
2 *64:2 0.036758
3 *366:Q 0.131961
4 *64:4 0.082645
5 *347:B 0.065437
6 *64:6 0.009356
7 *64:7 0.065990
8 *64:8 0.049316
9 *64:9 0.047747
10 *542:A 0.047747
11 *64:11 0.020994
12 *64:12 0.126632
13 *64:13 0.126632
14 *64:14 0.603760
15 *64:15 0.603760
16 *64:16 0.942970
17 *64:17 0.942970
18 *348:B 0.030904

*RES
1 *64:2 *64:1 0.365600
2 *64:4 *366:Q 2.010800
3 *347:B *64:6 0.207478
4 *347:B *64:7 0.914000
5 *366:Q *64:8 1.096800
6 *542:A *64:9 0.552970
7 *64:11 *347:B 0.516410
8 *64:12 *64:13 1.096800
9 *64:14 *64:15 7.677600
10 *64:16 *64:17 11.150800
11 *64:7 *348:B 0.390278
12 *64:16 *64:2 2.000000
13 *64:17 *64:12 2.000000
14 *64:13 *64:9 2.000000
15 *64:15 *64:11 2.000000
16 *64:14 *64:4 2.000000
17 *64:1 *64:8 2.000000
*END

*D_NET *65 8.498346

*CONN
*I *364:A I *C 15.300 6.300
*I *546:A0N I *C 28.700 19.100
*I *544:A1 I *C 25.500 19.095
*I *352:B I *C 35.900 4.692
*I *347:Y O *C 30.300 5.092
*N *65:1 *C 15.300 2.100
*N *65:2 *C 16.700 2.100
*N *65:4 *C 15.300 2.300
*N *65:5 *C 24.100 18.300
*N *65:6 *C 25.500 18.300
*N *65:8 *C 28.700 19.092
*N *65:9 *C 25.500 18.300
*N *65:11 *C 35.900 5.100
*N *65:13 *C 25.700 5.700
*N *65:14 *C 30.300 5.700
*N *65:15 *C 32.100 5.700
*N *65:16 *C 20.100 1.900
*N *65:17 *C 20.100 5.900
*N *65:18 *C 25.500 19.100
*N *65:19 *C 16.700 1.900
*N *65:20 *C 20.100 1.900
*N *65:21 *C 20.100 5.900
*N *65:22 *C 24.100 5.900
*N *65:23 *C 35.900 5.700
*N *65:24 *C 35.900 5.100
*N *65:25 *C 25.500 19.100
*N *65:26 *C 28.700 19.100
*N *65:27 *C 30.300 5.700
*N *65:29 *C 25.700 5.900
*N *65:30 *C 32.100 5.700
*N *65:31 *C 35.900 5.700
*N *65:32 *C 24.100 5.900
*N *65:33 *C 24.100 18.300
*N *65:34 *C 15.300 2.300
*N *65:35 *C 15.300 2.100
*N *65:36 *C 32.100 5.700
*N *65:37 *C 35.900 5.100
*N *65:38 *C 15.300 2.300

*CAP
1 *65:1 0.124297
2 *65:2 0.140263
3 *364:A 0.295370
4 *65:4 0.295370
5 *65:5 0.112662
6 *65:6 0.112662
7 *546:A0N 0.004281
8 *65:8 0.004281
9 *65:9 0.088674
10 *544:A1 0.099078
11 *65:11 0.020736
12 *352:B 0.020736
13 *65:13 0.410670
14 *65:14 0.572858
15 *65:15 0.171185
16 *65:16 0.323736
17 *65:17 0.323736
18 *65:18 0.010403
19 *65:19 0.387443
20 *65:20 0.371476
21 *65:21 0.315298
22 *65:22 0.476070
23 *65:23 0.049275
24 *65:24 0.049275
25 *65:25 0.230838
26 *65:26 0.230838
27 *65:27 0.039904
28 *347:Y 0.039904
29 *65:29 0.169769
30 *65:30 0.387634
31 *65:31 0.387634
32 *65:32 1.096732
33 *65:33 1.096732
34 *65:34 0.019262
35 *65:35 0.019262

*RES
1 *65:1 *65:2 1.279600
2 *65:4 *364:A 3.656000
3 *65:5 *65:6 1.279600
4 *65:8 *546:A0N 0.007312
5 *65:9 *544:A1 0.726630
6 *352:B *65:11 0.372912
7 *65:13 *65:14 4.204400
8 *65:14 *65:15 1.645200
9 *65:16 *65:17 3.656000
10 *544:A1 *65:18 0.004570
11 *65:19 *65:20 3.107600
12 *65:21 *65:22 3.656000
13 *65:24 *65:23 0.548400
14 *65:25 *65:26 2.924800
15 *347:Y *65:27 0.555712
16 *65:13 *65:29 0.182800
17 *65:30 *65:31 3.473200
18 *65:32 *65:33 11.333600
19 *65:35 *65:34 0.182800
20 *65:19 *65:2 0.182800
21 *65:22 *65:29 1.462400
22 *65:26 *546:A0N 2.000000
23 *65:20 *65:16 2.000000
24 *65:33 *65:5 2.000000
25 *65:30 *65:36 2.000000
26 *65:32 *65:22 2.000000
27 *65:17 *65:21 2.000000
28 *65:36 *65:15 2.000000
29 *65:1 *65:35 2.000000
30 *65:31 *65:23 2.000000
31 *65:37 *65:11 2.000000
32 *65:14 *65:27 2.000000
33 *65:6 *65:9 2.000000
34 *65:38 *65:4 2.000000
35 *65:25 *65:18 2.000000
36 *65:24 *65:37 2.000000
37 *65:34 *65:38 2.000000
*END

*D_NET *66 5.165020

*CONN
*I *357:B I *C 4.100 6.100
*I *348:Z O *C 31.300 5.092
*I *349:B0 I *C 31.900 4.895
*I *352:AN I *C 35.500 4.500
*N *66:2 *C 4.100 5.500
*N *66:3 *C 19.900 5.500
*N *66:4 *C 31.300 5.500
*N *66:5 *C 17.300 5.300
*N *66:6 *C 19.900 5.300
*N *66:8 *C 31.300 4.500
*N *66:9 *C 31.900 4.500
*N *66:10 *C 35.500 4.500
*N *66:11 *C 31.300 5.500
*N *66:12 *C 31.900 4.500
*N *66:14 *C 4.100 5.500
*N *66:15 *C 17.300 5.500
*N *66:17 *C 35.500 4.510

*CAP
1 *357:B 0.032986
2 *66:2 0.032986
3 *66:3 0.856041
4 *66:4 0.847043
5 *66:5 0.191727
6 *66:6 0.188470
7 *348:Z 0.055302
8 *66:8 0.059156
9 *66:9 0.286617
10 *66:10 0.286617
11 *66:11 0.018474
12 *66:12 0.037594
13 *349:B0 0.015266
14 *66:14 1.116709
15 *66:15 1.128963
16 *352:AN 0.005535
17 *66:17 0.005535

*RES
1 *66:2 *357:B 0.548400
2 *66:3 *66:4 10.419600
3 *66:5 *66:6 2.376400
4 *66:8 *348:Z 0.541088
5 *66:9 *66:10 3.290400
6 *348:Z *66:11 0.372912
7 *66:12 *349:B0 0.361030
8 *66:6 *66:3 0.182800
9 *66:14 *66:15 12.064800
10 *66:5 *66:15 0.182800
11 *352:AN *66:17 0.009140
12 *66:8 *66:12 0.548400
13 *66:4 *66:11 2.000000
14 *66:14 *66:2 2.000000
15 *66:10 *352:AN 2.000000
16 *66:9 *66:12 2.000000
*END

*D_NET *67 0.673223

*CONN
*I *349:A1 I *C 32.300 4.892
*I *351:A1 I *C 34.700 5.095
*I *350:Y O *C 34.100 4.675
*N *67:2 *C 32.300 5.500
*N *67:3 *C 34.700 4.300
*N *67:4 *C 34.100 4.300
*N *67:5 *C 33.800 5.300
*N *67:6 *C 34.700 5.300
*N *67:7 *C 33.800 5.500
*N *67:10 *C 32.300 5.500
*N *67:11 *C 34.700 5.300

*CAP
1 *349:A1 0.048264
2 *67:2 0.048264
3 *67:3 0.062783
4 *67:4 0.050566
5 *67:5 0.055988
6 *67:6 0.043734
7 *67:7 0.143829
8 *351:A1 0.050218
9 *350:Y 0.028238
10 *67:10 0.131575
11 *67:11 0.009762

*RES
1 *349:A1 *67:2 0.555712
2 *67:4 *67:3 0.548400
3 *67:5 *67:6 0.822600
4 *67:5 *67:7 0.182800
5 *67:3 *351:A1 0.726630
6 *67:4 *350:Y 0.342750
7 *67:10 *67:7 1.371000
8 *351:A1 *67:11 0.187370
9 *67:6 *67:11 2.000000
10 *67:10 *67:2 2.000000
*END

*D_NET *68 0.813816

*CONN
*I *351:Y O *C 35.100 4.675
*I *354:C0 I *C 39.300 4.885
*N *68:1 *C 35.100 4.300
*N *68:3 *C 39.100 4.885
*N *68:4 *C 39.100 4.300
*N *68:5 *C 39.100 4.300
*N *68:6 *C 35.100 4.300

*CAP
1 *68:1 0.025139
2 *351:Y 0.025139
3 *68:3 0.042413
4 *68:4 0.032844
5 *68:5 0.339355
6 *68:6 0.339355
7 *354:C0 0.009569

*RES
1 *68:1 *351:Y 0.342750
2 *68:4 *68:3 0.534690
3 *68:6 *68:5 3.656000
4 *68:3 *354:C0 0.182800
5 *68:5 *68:4 2.000000
6 *68:6 *68:1 2.000000
*END

*D_NET *69 4.134934

*CONN
*I *361:B I *C 10.700 6.300
*I *352:Y O *C 36.100 5.300
*I *353:A I *C 37.700 5.075
*N *69:2 *C 10.700 5.300
*N *69:3 *C 37.100 5.300
*N *69:4 *C 36.100 5.300
*N *69:5 *C 17.000 5.500
*N *69:6 *C 33.800 5.500
*N *69:7 *C 17.000 5.300
*N *69:8 *C 33.800 5.300
*N *69:9 *C 37.100 5.300
*N *69:11 *C 36.100 5.092
*N *69:12 *C 37.700 5.300
*N *69:14 *C 13.100 5.300
*N *69:15 *C 37.700 5.300
*N *69:16 *C 10.700 5.300
*N *69:17 *C 13.100 5.300
*N *69:18 *C 37.100 5.300
*N *69:19 *C 13.100 5.300

*CAP
1 *361:B 0.057477
2 *69:2 0.057477
3 *69:3 0.165694
4 *69:4 0.096995
5 *69:5 1.063447
6 *69:6 1.063447
7 *69:7 0.354330
8 *69:8 0.231478
9 *69:9 0.218377
10 *352:Y 0.010996
11 *69:11 0.010996
12 *69:12 0.010904
13 *353:A 0.010904
14 *69:14 0.341229
15 *69:15 0.068699
16 *69:16 0.186241
17 *69:17 0.186241

*RES
1 *69:2 *361:B 0.914000
2 *69:4 *69:3 0.914000
3 *69:5 *69:6 15.355200
4 *69:7 *69:5 0.182800
5 *69:8 *69:9 3.016200
6 *69:11 *352:Y 0.190112
7 *353:A *69:12 0.205650
8 *69:8 *69:6 0.182800
9 *69:14 *69:7 3.564600
10 *69:3 *69:15 0.548400
11 *69:16 *69:17 2.193600
12 *69:15 *69:12 2.000000
13 *69:9 *69:18 2.000000
14 *69:16 *69:2 2.000000
15 *69:4 *352:Y 2.000000
16 *69:18 *69:3 2.000000
17 *69:19 *69:17 2.000000
18 *69:14 *69:19 2.000000
*END

*D_NET *70 0.449389

*CONN
*I *354:Y O *C 39.300 4.500
*I *353:B I *C 36.500 5.092
*N *70:1 *C 37.700 5.092
*N *70:2 *C 37.700 4.500
*N *70:3 *C 39.300 4.500
*N *70:4 *C 36.500 5.092

*CAP
1 *70:1 0.106571
2 *70:2 0.138877
3 *70:3 0.118123
4 *70:4 0.085818

*RES
1 *70:2 *70:1 0.541088
2 *70:2 *70:3 1.462400
3 *70:4 *70:1 1.096800
4 *70:3 *354:Y 2.000000
5 *70:4 *353:B 2.000000
*END

*D_NET *71 0.284897

*CONN
*I *355:Z O *C 40.700 5.300
*I *354:A0 I *C 38.700 4.895
*N *71:2 *C 40.700 5.092
*N *71:3 *C 38.700 5.300
*N *71:4 *C 40.700 5.300
*N *71:6 *C 38.700 5.300

*CAP
1 *355:Z 0.009824
2 *71:2 0.009824
3 *71:3 0.097037
4 *71:4 0.097037
5 *354:A0 0.035587
6 *71:6 0.035587

*RES
1 *71:2 *355:Z 0.190112
2 *71:3 *71:4 1.828000
3 *354:A0 *71:6 0.370170
4 *71:3 *71:6 2.000000
5 *71:4 *355:Z 2.000000
*END

*D_NET *72 5.605654

*CONN
*I *356:Y O *C 3.500 6.500
*I *354:A1 I *C 38.300 4.900
*N *72:1 *C 4.300 6.300
*N *72:2 *C 4.300 4.700
*N *72:3 *C 16.100 4.500
*N *72:4 *C 36.900 4.500
*N *72:5 *C 16.100 4.700
*N *72:6 *C 38.100 4.900
*N *72:7 *C 38.300 4.900
*N *72:8 *C 4.300 4.700
*N *72:9 *C 36.900 4.700
*N *72:10 *C 38.100 4.700
*N *72:12 *C 3.500 6.300
*N *72:14 *C 38.300 4.895
*N *72:15 *C 38.100 4.700
*N *72:16 *C 38.100 4.900
*N *72:17 *C 3.500 6.300
*N *72:18 *C 4.300 6.300

*CAP
1 *72:1 0.171490
2 *72:2 0.171490
3 *72:3 1.670212
4 *72:4 1.668624
5 *72:5 0.708955
6 *72:6 0.019341
7 *72:7 0.019341
8 *72:8 0.697441
9 *72:9 0.119493
10 *72:10 0.109567
11 *356:Y 0.013495
12 *72:12 0.013495
13 *354:A1 0.007843
14 *72:14 0.007843
15 *72:15 0.019521
16 *72:16 0.019521
17 *72:17 0.083991
18 *72:18 0.083991

*RES
1 *72:2 *72:1 1.462400
2 *72:3 *72:4 19.011200
3 *72:3 *72:5 0.182800
4 *72:6 *72:7 0.182800
5 *72:8 *72:5 10.785200
6 *72:9 *72:10 1.096800
7 *72:12 *356:Y 0.182800
8 *72:14 *354:A1 0.004570
9 *72:4 *72:9 0.182800
10 *72:15 *72:16 0.182800
11 *72:17 *72:18 0.731200
12 *72:16 *72:6 2.000000
13 *72:7 *354:A1 2.000000
14 *72:17 *72:12 2.000000
15 *72:10 *72:15 2.000000
16 *72:8 *72:2 2.000000
17 *72:1 *72:18 2.000000
*END

*D_NET *73 1.432891

*CONN
*I *361:A I *C 11.100 6.100
*I *358:Y O *C 5.500 6.075
*I *357:A I *C 3.900 6.300
*N *73:2 *C 10.900 6.100
*N *73:3 *C 10.900 6.500
*N *73:5 *C 5.500 5.900
*N *73:6 *C 10.900 6.500
*N *73:7 *C 5.500 6.500
*N *73:8 *C 3.900 5.900
*N *73:10 *C 5.500 5.900
*N *73:11 *C 3.900 5.900
*N *73:12 *C 5.500 6.500

*CAP
1 *361:A 0.009569
2 *73:2 0.036992
3 *73:3 0.027423
4 *358:Y 0.047309
5 *73:5 0.009218
6 *73:6 0.455364
7 *73:7 0.455364
8 *73:8 0.037649
9 *357:A 0.037649
10 *73:10 0.139131
11 *73:11 0.139131
12 *73:12 0.038091

*RES
1 *73:2 *361:A 0.182800
2 *73:2 *73:3 0.365600
3 *73:5 *358:Y 0.159950
4 *73:7 *73:6 4.935600
5 *73:8 *357:A 0.365600
6 *73:11 *73:10 1.462400
7 *358:Y *73:12 0.388450
8 *73:6 *73:3 2.000000
9 *73:11 *73:8 2.000000
10 *73:7 *73:12 2.000000
11 *73:10 *73:5 2.000000
*END

*D_NET *74 0.821662

*CONN
*I *359:B I *C 6.500 6.100
*I *358:BN I *C 6.100 6.100
*I *360:Y O *C 10.100 6.700
*N *74:3 *C 6.100 6.300
*N *74:4 *C 6.500 6.900
*N *74:5 *C 10.100 6.900
*N *74:6 *C 6.500 6.900
*N *74:7 *C 10.100 6.900

*CAP
1 *359:B 0.053186
2 *358:BN 0.026203
3 *74:3 0.010254
4 *74:4 0.336126
5 *74:5 0.336126
6 *74:6 0.037238
7 *74:7 0.011264
8 *360:Y 0.011264

*RES
1 *358:BN *359:B 0.365600
2 *358:BN *74:3 0.182800
3 *74:4 *74:5 3.290400
4 *359:B *74:6 0.731200
5 *360:Y *74:7 0.182800
6 *74:4 *74:6 2.000000
7 *74:5 *74:7 2.000000
*END

*D_NET *75 0.658935

*CONN
*I *362:Y O *C 13.500 6.700
*I *361:C I *C 10.500 5.925
*N *75:1 *C 13.500 6.100
*N *75:3 *C 10.500 6.100
*N *75:4 *C 13.500 6.100
*N *75:6 *C 10.500 6.100

*CAP
1 *75:1 0.038853
2 *362:Y 0.038853
3 *75:3 0.266727
4 *75:4 0.266727
5 *361:C 0.023887
6 *75:6 0.023887

*RES
1 *75:1 *362:Y 0.548400
2 *75:3 *75:4 2.742000
3 *361:C *75:6 0.159950
4 *75:4 *75:1 2.000000
5 *75:3 *75:6 2.000000
*END

*D_NET *76 7.116830

*CONN
*I *382:D I *C 7.500 7.695
*I *361:Y O *C 11.500 5.900
*I *547:A0 I *C 30.300 18.892
*I *374:B I *C 32.100 6.100
*I *376:B I *C 33.700 6.100
*N *76:2 *C 7.500 7.100
*N *76:3 *C 30.900 6.300
*N *76:4 *C 30.900 9.100
*N *76:5 *C 8.500 5.900
*N *76:6 *C 11.500 5.900
*N *76:7 *C 11.900 4.500
*N *76:8 *C 11.900 2.500
*N *76:9 *C 30.900 6.300
*N *76:10 *C 32.100 6.300
*N *76:11 *C 30.700 18.300
*N *76:12 *C 30.300 18.300
*N *76:14 *C 11.500 6.285
*N *76:15 *C 11.500 4.500
*N *76:16 *C 11.900 2.500
*N *76:17 *C 30.900 2.500
*N *76:18 *C 8.100 7.100
*N *76:19 *C 8.500 7.100
*N *76:20 *C 30.700 9.100
*N *76:21 *C 30.700 18.300
*N *76:22 *C 32.100 6.100
*N *76:23 *C 33.700 6.100
*N *76:24 *C 30.300 18.300
*N *76:26 *C 30.900 2.500
*N *76:27 *C 7.500 7.100
*N *76:28 *C 8.100 7.100
*N *76:29 *C 8.500 5.900

*CAP
1 *382:D 0.037788
2 *76:2 0.037788
3 *76:3 0.493970
4 *76:4 0.238762
5 *76:5 0.303500
6 *76:6 0.303500
7 *76:7 0.220316
8 *76:8 0.204367
9 *76:9 0.094960
10 *76:10 0.103957
11 *76:11 0.047111
12 *76:12 0.047111
13 *361:Y 0.077149
14 *76:14 0.020390
15 *76:15 0.072708
16 *76:16 1.100963
17 *76:17 1.100963
18 *76:18 0.016562
19 *76:19 0.124433
20 *76:20 0.800610
21 *76:21 0.787996
22 *76:22 0.149158
23 *76:23 0.140161
24 *76:24 0.038785
25 *547:A0 0.038785
26 *76:26 0.267822
27 *76:27 0.069674
28 *76:28 0.069674
29 *76:29 0.107871

*RES
1 *76:2 *382:D 0.543830
2 *76:3 *76:4 2.559200
3 *76:5 *76:6 2.742000
4 *76:8 *76:7 1.828000
5 *76:9 *76:10 1.096800
6 *76:12 *76:11 0.365600
7 *361:Y *76:14 0.351890
8 *76:15 *361:Y 1.279600
9 *76:16 *76:17 17.366000
10 *76:18 *76:19 0.365600
11 *76:20 *76:21 8.408800
12 *76:22 *76:23 1.462400
13 *76:24 *547:A0 0.541088
14 *76:26 *76:3 3.473200
15 *76:22 *76:10 0.182800
16 *76:15 *76:7 0.365600
17 *76:27 *76:28 0.548400
18 *76:29 *76:19 1.096800
19 *76:20 *76:4 0.182800
20 *76:3 *76:9 2.000000
21 *76:12 *76:24 2.000000
22 *76:16 *76:8 2.000000
23 *76:22 *374:B 2.000000
24 *76:29 *76:5 2.000000
25 *76:18 *76:28 2.000000
26 *76:21 *76:11 2.000000
27 *76:23 *376:B 2.000000
28 *76:6 *361:Y 2.000000
29 *76:26 *76:17 2.000000
30 *76:27 *76:2 2.000000
*END

*D_NET *77 1.513659

*CONN
*I *357:Y O *C 4.300 6.500
*I *363:A1 I *C 14.100 6.500
*N *77:2 *C 4.300 6.700
*N *77:3 *C 4.300 6.700
*N *77:4 *C 5.300 6.700
*N *77:5 *C 13.700 6.700
*N *77:6 *C 13.700 6.500
*N *77:7 *C 13.700 6.500
*N *77:8 *C 14.100 6.500
*N *77:9 *C 5.300 6.700
*N *77:10 *C 13.700 6.700
*N *77:11 *C 5.300 6.700

*CAP
1 *357:Y 0.012606
2 *77:2 0.012606
3 *77:3 0.071053
4 *77:4 0.071053
5 *77:5 0.019465
6 *77:6 0.019465
7 *77:7 0.030692
8 *77:8 0.030692
9 *77:9 0.623014
10 *77:10 0.623014

*RES
1 *357:Y *77:2 0.182800
2 *77:3 *77:4 0.914000
3 *77:6 *77:5 0.182800
4 *77:7 *77:8 0.365600
5 *77:9 *77:10 7.677600
6 *77:9 *77:11 2.000000
7 *77:3 *77:2 2.000000
8 *77:11 *77:4 2.000000
9 *77:6 *77:7 2.000000
10 *77:10 *77:5 2.000000
11 *77:8 *363:A1 2.000000
*END

*D_NET *78 0.137191

*CONN
*I *363:B0 I *C 14.300 6.300
*I *364:Y O *C 14.900 6.100
*N *78:1 *C 14.300 6.100
*N *78:2 *C 14.900 6.100
*N *78:4 *C 14.300 6.100

*CAP
1 *78:1 0.053499
2 *78:2 0.053499
3 *363:B0 0.015096
4 *78:4 0.015096

*RES
1 *78:1 *78:2 0.548400
2 *78:4 *363:B0 0.182800
3 *78:2 *364:Y 2.000000
4 *78:1 *78:4 2.000000
*END

*D_NET *79 0.242227

*CONN
*I *363:Y O *C 14.500 5.925
*I *365:B I *C 15.700 6.100
*N *79:1 *C 14.500 5.900
*N *79:2 *C 15.300 5.900
*N *79:3 *C 15.300 6.100
*N *79:4 *C 15.700 6.100
*N *79:6 *C 14.500 5.900

*CAP
1 *79:1 0.079833
2 *79:2 0.088830
3 *79:3 0.032611
4 *79:4 0.023614
5 *363:Y 0.008670
6 *79:6 0.008670

*RES
1 *79:1 *79:2 0.731200
2 *79:2 *79:3 0.182800
3 *79:3 *79:4 0.365600
4 *79:6 *363:Y 0.022850
5 *79:4 *365:B 2.000000
6 *79:1 *79:6 2.000000
*END

*D_NET *80 6.202944

*CONN
*I *362:B I *C 11.900 6.100
*I *550:A I *C 35.100 18.892
*I *546:B0 I *C 28.900 18.900
*I *367:Q O *C 26.100 6.100
*I *365:A I *C 16.900 6.300
*N *80:1 *C 28.900 18.900
*N *80:2 *C 34.100 18.900
*N *80:3 *C 34.100 18.900
*N *80:4 *C 34.100 18.500
*N *80:5 *C 24.700 17.000
*N *80:6 *C 24.700 18.500
*N *80:7 *C 22.100 6.100
*N *80:8 *C 24.500 6.100
*N *80:9 *C 16.700 6.300
*N *80:10 *C 16.500 6.300
*N *80:11 *C 16.900 6.300
*N *80:12 *C 26.100 6.100
*N *80:14 *C 11.900 6.900
*N *80:15 *C 35.100 18.500
*N *80:17 *C 24.500 17.000
*N *80:18 *C 34.100 18.500
*N *80:19 *C 35.100 18.500
*N *80:20 *C 24.700 18.500
*N *80:21 *C 24.700 18.700
*N *80:22 *C 16.700 6.900
*N *80:23 *C 11.900 6.900
*N *80:24 *C 28.900 18.700
*N *80:25 *C 16.500 6.100
*N *80:26 *C 22.100 6.100
*N *80:28 *C 28.900 18.892
*N *80:29 *C 24.500 6.100
*N *80:30 *C 16.500 6.300
*N *80:31 *C 16.500 6.100
*N *80:32 *C 28.900 18.900
*N *80:35 *C 28.900 18.900
*N *80:36 *C 22.100 6.100

*CAP
1 *80:1 0.347769
2 *80:2 0.336255
3 *80:3 0.047372
4 *80:4 0.047372
5 *80:5 0.147842
6 *80:6 0.132046
7 *80:7 0.191939
8 *80:8 0.309104
9 *80:9 0.043181
10 *80:10 0.008694
11 *80:11 0.010237
12 *80:12 0.117165
13 *362:B 0.065153
14 *80:14 0.065153
15 *80:15 0.021307
16 *550:A 0.021307
17 *80:17 0.918593
18 *80:18 0.076835
19 *80:19 0.076835
20 *80:20 0.016768
21 *80:21 0.342296
22 *80:22 0.289860
23 *80:23 0.265610
24 *80:24 0.337041
25 *80:25 0.504833
26 *80:26 0.504833
27 *546:B0 0.004665
28 *80:28 0.004665
29 *80:29 0.902797
30 *80:30 0.022707
31 *80:31 0.022707

*RES
1 *80:1 *80:2 4.752800
2 *80:4 *80:3 0.365600
3 *80:5 *80:6 1.371000
4 *80:7 *80:8 2.193600
5 *80:10 *80:9 0.182800
6 *80:9 *80:11 0.182800
7 *80:8 *80:12 1.462400
8 *362:B *80:14 0.731200
9 *80:15 *550:A 0.358288
10 *80:17 *80:5 0.182800
11 *80:18 *80:19 0.914000
12 *80:20 *80:21 0.182800
13 *80:9 *80:22 0.548400
14 *80:23 *80:22 4.387200
15 *80:21 *80:24 3.838800
16 *80:24 *80:1 0.182800
17 *80:25 *80:26 5.118400
18 *80:28 *546:B0 0.007312
19 *80:29 *80:17 9.962600
20 *80:31 *80:30 0.182800
21 *80:32 *546:B0 2.000000
22 *80:12 *367:Q 2.000000
23 *80:29 *80:8 2.000000
24 *80:25 *80:31 2.000000
25 *80:2 *80:3 2.000000
26 *80:30 *80:10 2.000000
27 *80:11 *365:A 2.000000
28 *80:19 *80:15 2.000000
29 *80:23 *80:14 2.000000
30 *80:1 *80:35 2.000000
31 *80:20 *80:6 2.000000
32 *80:4 *80:18 2.000000
33 *80:26 *80:36 2.000000
34 *80:35 *80:32 2.000000
35 *80:36 *80:7 2.000000
*END

*D_NET *81 1.495290

*CONN
*I *368:A I *C 26.500 6.300
*I *377:Q O *C 38.300 6.100
*I *369:B I *C 27.500 6.500
*N *81:1 *C 27.500 6.500
*N *81:2 *C 27.500 6.300
*N *81:4 *C 26.500 6.500
*N *81:5 *C 34.100 6.300
*N *81:6 *C 34.100 6.100
*N *81:7 *C 27.700 6.300
*N *81:8 *C 34.100 6.300
*N *81:9 *C 26.500 6.500
*N *81:10 *C 27.700 6.300
*N *81:11 *C 34.100 6.100
*N *81:12 *C 38.300 6.100
*N *81:13 *C 27.700 6.300

*CAP
1 *81:1 0.076309
2 *81:2 0.020624
3 *368:A 0.010837
4 *81:4 0.010837
5 *81:5 0.026026
6 *81:6 0.026026
7 *81:7 0.434566
8 *81:8 0.434566
9 *81:9 0.067312
10 *81:10 0.011627
11 *81:11 0.188280
12 *81:12 0.188280

*RES
1 *81:2 *81:1 0.182800
2 *368:A *81:4 0.182800
3 *81:6 *81:5 0.182800
4 *81:7 *81:8 5.849600
5 *81:9 *81:1 0.914000
6 *81:2 *81:10 0.182800
7 *81:11 *81:12 3.838800
8 *81:7 *81:13 2.000000
9 *81:6 *81:11 2.000000
10 *81:13 *81:10 2.000000
11 *81:8 *81:5 2.000000
12 *81:12 *377:Q 2.000000
13 *81:1 *369:B 2.000000
14 *81:9 *81:4 2.000000
*END

*D_NET *82 4.341055

*CONN
*I *549:A1 I *C 33.500 18.895
*I *368:Y O *C 26.700 6.100
*I *552:A1 I *C 36.700 19.300
*I *374:A I *C 31.900 6.300
*I *371:B I *C 28.700 6.500
*N *82:1 *C 32.500 18.900
*N *82:2 *C 33.500 18.900
*N *82:3 *C 33.500 19.300
*N *82:5 *C 32.500 5.900
*N *82:6 *C 32.500 18.900
*N *82:7 *C 31.900 5.900
*N *82:8 *C 32.500 5.900
*N *82:10 *C 26.700 5.100
*N *82:12 *C 36.700 19.095
*N *82:13 *C 33.500 19.300
*N *82:14 *C 31.900 5.900
*N *82:16 *C 36.700 19.300
*N *82:17 *C 28.700 5.900
*N *82:19 *C 28.700 4.900
*N *82:20 *C 28.700 5.900
*N *82:21 *C 26.700 5.100
*N *82:22 *C 28.700 5.100
*N *82:23 *C 28.700 4.900

*CAP
1 *82:1 0.075330
2 *82:2 0.090325
3 *82:3 0.037866
4 *549:A1 0.037866
5 *82:5 1.114334
6 *82:6 1.114334
7 *82:7 0.365370
8 *82:8 0.057800
9 *368:Y 0.045575
10 *82:10 0.045575
11 *552:A1 0.020401
12 *82:12 0.020401
13 *82:13 0.204882
14 *82:14 0.017156
15 *374:A 0.017156
16 *82:16 0.189887
17 *82:17 0.132021
18 *371:B 0.059603
19 *82:19 0.072418
20 *82:20 0.307570
21 *82:21 0.148594
22 *82:22 0.157592
23 *82:23 0.008997

*RES
1 *82:1 *82:2 0.914000
2 *549:A1 *82:3 0.370170
3 *82:5 *82:6 11.882000
4 *82:7 *82:8 0.548400
5 *82:10 *368:Y 0.914000
6 *82:12 *552:A1 0.187370
7 *82:2 *82:13 0.365600
8 *82:14 *374:A 0.365600
9 *82:13 *82:16 2.924800
10 *82:17 *371:B 0.548400
11 *82:19 *82:17 0.914000
12 *82:20 *82:7 2.924800
13 *82:21 *82:22 1.828000
14 *82:23 *82:22 0.182800
15 *82:20 *82:17 2.000000
16 *82:13 *82:3 2.000000
17 *82:7 *82:14 2.000000
18 *82:23 *82:19 2.000000
19 *82:21 *82:10 2.000000
20 *82:5 *82:8 2.000000
21 *82:16 *552:A1 2.000000
22 *82:6 *82:1 2.000000
*END

*D_NET *83 2.361796

*CONN
*I *370:A I *C 28.500 6.100
*I *372:A I *C 29.700 6.100
*I *369:Y O *C 27.700 6.100
*I *379:B I *C 39.500 6.300
*N *83:2 *C 28.500 6.300
*N *83:3 *C 29.700 6.900
*N *83:4 *C 39.500 6.900
*N *83:5 *C 27.700 5.300
*N *83:6 *C 28.500 5.300
*N *83:8 *C 29.700 6.300
*N *83:10 *C 27.700 5.300
*N *83:11 *C 28.500 5.300
*N *83:12 *C 39.500 6.900
*N *83:14 *C 28.500 6.100
*N *83:15 *C 29.700 6.100
*N *83:16 *C 29.700 6.900

*CAP
1 *370:A 0.118893
2 *83:2 0.029723
3 *83:3 0.751844
4 *83:4 0.751844
5 *83:5 0.091804
6 *83:6 0.091804
7 *372:A 0.012246
8 *83:8 0.047274
9 *369:Y 0.040482
10 *83:10 0.040482
11 *83:11 0.089170
12 *83:12 0.031912
13 *379:B 0.031912
14 *83:14 0.098688
15 *83:15 0.098688
16 *83:16 0.035028

*RES
1 *370:A *83:2 0.182800
2 *83:3 *83:4 8.957200
3 *83:5 *83:6 0.731200
4 *372:A *83:8 0.182800
5 *83:10 *369:Y 0.731200
6 *83:11 *370:A 0.731200
7 *379:B *83:12 0.548400
8 *83:14 *83:15 1.096800
9 *83:8 *83:16 0.548400
10 *83:3 *83:16 2.000000
11 *83:15 *372:A 2.000000
12 *83:14 *370:A 2.000000
13 *83:6 *83:11 2.000000
14 *83:4 *83:12 2.000000
15 *83:5 *83:10 2.000000
*END

*D_NET *84 0.349103

*CONN
*I *370:B I *C 27.900 6.500
*I *371:Y O *C 28.900 6.100
*N *84:2 *C 27.900 6.900
*N *84:3 *C 28.900 6.700
*N *84:5 *C 28.900 6.900
*N *84:6 *C 28.900 6.700
*N *84:7 *C 27.900 6.900

*CAP
1 *370:B 0.023093
2 *84:2 0.023093
3 *84:3 0.050808
4 *371:Y 0.050808
5 *84:5 0.100650
6 *84:6 0.014896
7 *84:7 0.085755

*RES
1 *370:B *84:2 0.365600
2 *371:Y *84:3 0.548400
3 *84:6 *84:5 0.182800
4 *84:7 *84:5 0.914000
5 *84:7 *84:2 2.000000
6 *84:6 *84:3 2.000000
*END

*D_NET *85 7.621462

*CONN
*I *370:Y O *C 28.100 6.100
*I *382:C I *C 7.100 7.515
*I *548:A I *C 32.500 18.700
*N *85:1 *C 7.100 3.500
*N *85:2 *C 28.100 3.500
*N *85:3 *C 32.900 18.700
*N *85:4 *C 32.500 18.700
*N *85:5 *C 32.900 3.500
*N *85:6 *C 32.900 18.700
*N *85:7 *C 28.100 3.500
*N *85:10 *C 7.100 3.500
*N *85:11 *C 32.900 3.500
*N *85:13 *C 32.500 18.895

*CAP
1 *85:1 1.888848
2 *85:2 2.219968
3 *85:3 0.038578
4 *85:4 0.038578
5 *85:5 1.152906
6 *85:6 1.152906
7 *85:7 0.154958
8 *370:Y 0.154958
9 *382:C 0.234741
10 *85:10 0.234741
11 *85:11 0.331120
12 *548:A 0.009580
13 *85:13 0.009580

*RES
1 *85:1 *85:2 19.194000
2 *85:4 *85:3 0.365600
3 *85:5 *85:6 13.892800
4 *85:7 *370:Y 2.376400
5 *85:10 *382:C 3.669710
6 *85:2 *85:11 4.387200
7 *548:A *85:13 0.178230
8 *85:2 *85:7 2.000000
9 *85:1 *85:10 2.000000
10 *85:5 *85:11 2.000000
11 *85:6 *85:3 2.000000
12 *85:4 *548:A 2.000000
*END

*D_NET *86 7.596454

*CONN
*I *392:A1 I *C 27.100 7.500
*I *372:B I *C 29.900 6.700
*I *394:A1 I *C 29.300 7.695
*I *549:Y O *C 34.500 18.700
*I *380:A1 I *C 3.300 7.495
*N *86:1 *C 33.900 18.700
*N *86:2 *C 34.500 18.700
*N *86:4 *C 27.100 7.695
*N *86:5 *C 33.900 12.500
*N *86:6 *C 33.900 18.700
*N *86:7 *C 32.100 12.500
*N *86:8 *C 33.900 12.500
*N *86:10 *C 29.900 6.500
*N *86:12 *C 29.300 8.900
*N *86:13 *C 29.300 7.500
*N *86:14 *C 29.300 6.900
*N *86:15 *C 27.900 7.500
*N *86:16 *C 27.100 7.500
*N *86:17 *C 6.700 7.300
*N *86:18 *C 6.700 6.300
*N *86:19 *C 17.000 6.500
*N *86:20 *C 27.900 6.500
*N *86:21 *C 32.100 8.900
*N *86:22 *C 32.100 12.500
*N *86:24 *C 34.500 18.675
*N *86:26 *C 3.300 7.300
*N *86:27 *C 29.300 7.500
*N *86:28 *C 29.300 6.700
*N *86:29 *C 29.900 6.700
*N *86:30 *C 27.900 6.500
*N *86:31 *C 27.900 7.500
*N *86:32 *C 29.300 6.900
*N *86:33 *C 6.700 6.300
*N *86:34 *C 17.000 6.300
*N *86:35 *C 29.300 8.900
*N *86:36 *C 32.100 8.900
*N *86:37 *C 3.300 7.300
*N *86:38 *C 6.700 7.300

*CAP
1 *86:1 0.055757
2 *86:2 0.055757
3 *392:A1 0.020410
4 *86:4 0.020410
5 *86:5 0.499035
6 *86:6 0.499035
7 *86:7 0.144404
8 *86:8 0.144404
9 *372:B 0.020247
10 *86:10 0.020247
11 *394:A1 0.110667
12 *86:12 0.090806
13 *86:13 0.049746
14 *86:14 0.029885
15 *86:15 0.205848
16 *86:16 0.090704
17 *86:17 0.071371
18 *86:18 0.071371
19 *86:19 0.957999
20 *86:20 0.946485
21 *86:21 0.329430
22 *86:22 0.329430
23 *549:Y 0.004762
24 *86:24 0.004762
25 *380:A1 0.022036
26 *86:26 0.022036
27 *86:27 0.115144
28 *86:28 0.064786
29 *86:29 0.049890
30 *86:30 0.062145
31 *86:31 0.062145
32 *86:32 0.014896
33 *86:33 0.666607
34 *86:34 0.678121
35 *86:35 0.235599
36 *86:36 0.235599
37 *86:37 0.297238
38 *86:38 0.297238

*RES
1 *86:1 *86:2 0.548400
2 *392:A1 *86:4 0.178230
3 *86:5 *86:6 5.666800
4 *86:7 *86:8 1.645200
5 *86:10 *372:B 0.182800
6 *394:A1 *86:12 1.101370
7 *86:14 *86:13 0.548400
8 *86:16 *86:15 0.731200
9 *86:18 *86:17 0.914000
10 *86:19 *86:20 9.962600
11 *86:21 *86:22 3.290400
12 *86:24 *549:Y 0.022850
13 *86:26 *380:A1 0.178230
14 *86:15 *86:27 1.279600
15 *86:28 *86:29 0.548400
16 *86:30 *86:31 0.914000
17 *86:28 *86:32 0.182800
18 *86:33 *86:34 9.414200
19 *86:35 *86:36 2.559200
20 *86:37 *86:38 3.107600
21 *86:13 *394:A1 0.178230
22 *86:34 *86:19 0.182800
23 *86:31 *86:15 2.000000
24 *86:29 *372:B 2.000000
25 *86:32 *86:14 2.000000
26 *86:16 *392:A1 2.000000
27 *86:2 *549:Y 2.000000
28 *86:6 *86:1 2.000000
29 *86:27 *86:13 2.000000
30 *86:37 *86:26 2.000000
31 *86:22 *86:7 2.000000
32 *86:21 *86:36 2.000000
33 *86:33 *86:18 2.000000
34 *86:17 *86:38 2.000000
35 *86:20 *86:30 2.000000
36 *86:5 *86:8 2.000000
37 *86:35 *86:12 2.000000
*END

*D_NET *87 0.201556

*CONN
*I *372:C I *C 30.100 6.125
*I *373:Y O *C 31.100 6.100
*N *87:2 *C 30.100 6.100
*N *87:3 *C 30.100 6.100
*N *87:4 *C 31.100 6.100

*CAP
1 *372:C 0.006290
2 *87:2 0.006290
3 *87:3 0.094488
4 *87:4 0.094488

*RES
1 *87:2 *372:C 0.022850
2 *87:3 *87:4 0.914000
3 *87:4 *373:Y 2.000000
4 *87:3 *87:2 2.000000
*END

*D_NET *88 0.178539

*CONN
*I *373:B I *C 30.900 6.500
*I *374:Y O *C 32.300 6.500
*N *88:1 *C 30.900 6.900
*N *88:2 *C 32.300 6.900

*CAP
1 *88:1 0.065897
2 *88:2 0.072486
3 *373:B 0.016783
4 *374:Y 0.023373

*RES
1 *88:1 *88:2 1.279600
2 *373:B *88:1 0.365600
3 *374:Y *88:2 0.365600
*END

*D_NET *89 0.619366

*CONN
*I *375:Y O *C 32.700 6.100
*I *372:D I *C 30.500 6.500
*N *89:1 *C 32.700 5.300
*N *89:4 *C 30.500 5.300
*N *89:5 *C 30.500 5.300
*N *89:6 *C 32.700 5.300

*CAP
1 *89:1 0.079718
2 *375:Y 0.079718
3 *372:D 0.083671
4 *89:4 0.083671
5 *89:5 0.146294
6 *89:6 0.146294

*RES
1 *89:1 *375:Y 0.731200
2 *89:4 *372:D 1.096800
3 *89:5 *89:6 2.010800
4 *89:6 *89:1 2.000000
5 *89:5 *89:4 2.000000
*END

*D_NET *90 0.359419

*CONN
*I *375:B I *C 32.500 6.685
*I *376:Y O *C 33.900 6.500
*N *90:1 *C 32.500 6.300
*N *90:2 *C 33.700 6.300
*N *90:4 *C 32.500 6.300
*N *90:5 *C 33.700 6.500
*N *90:6 *C 33.900 6.500

*CAP
1 *90:1 0.116643
2 *90:2 0.125640
3 *375:B 0.029909
4 *90:4 0.029909
5 *90:5 0.033158
6 *90:6 0.024160

*RES
1 *90:1 *90:2 1.096800
2 *90:4 *375:B 0.351890
3 *90:2 *90:5 0.182800
4 *90:5 *90:6 0.182800
5 *90:1 *90:4 2.000000
6 *90:6 *376:Y 2.000000
*END

*D_NET *91 4.360170

*CONN
*I *383:B I *C 8.700 7.892
*I *372:Y O *C 30.700 6.500
*N *91:1 *C 9.900 6.900
*N *91:2 *C 17.000 6.900
*N *91:4 *C 8.700 7.100
*N *91:5 *C 30.700 6.700
*N *91:6 *C 30.700 6.500
*N *91:7 *C 9.900 7.100
*N *91:8 *C 9.900 6.900
*N *91:9 *C 17.000 6.700
*N *91:10 *C 30.700 6.700
*N *91:11 *C 8.700 7.100
*N *91:12 *C 9.900 7.100
*N *91:14 *C 30.700 6.125
*N *91:15 *C 30.700 6.500

*CAP
1 *91:1 0.698230
2 *91:2 0.709744
3 *383:B 0.088377
4 *91:4 0.088377
5 *91:5 0.022242
6 *91:6 0.022242
7 *91:7 0.018975
8 *91:8 0.018975
9 *91:9 1.187438
10 *91:10 1.175924
11 *91:11 0.130248
12 *91:12 0.130248
13 *372:Y 0.034575
14 *91:14 0.034575

*RES
1 *91:1 *91:2 6.489400
2 *91:4 *383:B 0.723888
3 *91:6 *91:5 0.182800
4 *91:8 *91:7 0.182800
5 *91:9 *91:10 12.521800
6 *91:11 *91:12 1.096800
7 *91:9 *91:2 0.182800
8 *91:14 *372:Y 0.342750
9 *91:1 *91:8 2.000000
10 *91:10 *91:5 2.000000
11 *91:6 *91:15 2.000000
12 *91:15 *372:Y 2.000000
13 *91:11 *91:4 2.000000
14 *91:7 *91:12 2.000000
*END

*D_NET *92 6.839651

*CONN
*I *378:B I *C 39.100 6.500
*I *384:B I *C 11.100 7.510
*I *554:A I *C 38.500 18.895
*I *385:Q O *C 15.700 8.100
*N *92:1 *C 39.100 5.500
*N *92:3 *C 38.500 5.500
*N *92:4 *C 39.100 5.500
*N *92:5 *C 38.500 5.500
*N *92:6 *C 38.500 17.700
*N *92:7 *C 14.900 8.100
*N *92:8 *C 15.700 8.100
*N *92:9 *C 17.000 2.300
*N *92:10 *C 17.000 2.100
*N *92:11 *C 36.100 5.500
*N *92:13 *C 11.100 8.100
*N *92:14 *C 14.900 8.100
*N *92:15 *C 14.900 2.300
*N *92:16 *C 14.900 2.300
*N *92:17 *C 36.100 2.100
*N *92:18 *C 36.100 2.100
*N *92:19 *C 36.100 5.500
*N *92:20 *C 11.100 8.100
*N *92:21 *C 38.500 17.700
*N *92:24 *C 15.700 7.892
*N *92:25 *C 38.500 17.700

*CAP
1 *92:1 0.104110
2 *378:B 0.104110
3 *92:3 0.195371
4 *92:4 0.044875
5 *92:5 0.725570
6 *92:6 0.725570
7 *92:7 0.379394
8 *92:8 0.074170
9 *92:9 0.239045
10 *92:10 1.096871
11 *92:11 0.150496
12 *384:B 0.031171
13 *92:13 0.031171
14 *92:14 0.362537
15 *92:15 0.362537
16 *92:16 0.223078
17 *92:17 1.080905
18 *92:18 0.209639
19 *92:19 0.209639
20 *92:20 0.305223
21 *92:21 0.071914
22 *554:A 0.071914
23 *385:Q 0.020170
24 *92:24 0.020170

*RES
1 *92:1 *378:B 0.914000
2 *92:3 *92:4 0.548400
3 *92:5 *92:6 11.150800
4 *92:7 *92:8 0.731200
5 *92:10 *92:9 0.182800
6 *92:11 *92:3 2.193600
7 *384:B *92:13 0.539260
8 *92:15 *92:14 5.301200
9 *92:16 *92:9 1.919400
10 *92:10 *92:17 17.457400
11 *92:18 *92:19 3.107600
12 *92:20 *92:7 3.473200
13 *92:21 *554:A 1.092230
14 *92:24 *385:Q 0.190112
15 *92:8 *385:Q 2.000000
16 *92:19 *92:11 2.000000
17 *92:5 *92:3 2.000000
18 *92:17 *92:18 2.000000
19 *92:14 *92:7 2.000000
20 *92:6 *92:25 2.000000
21 *92:16 *92:15 2.000000
22 *92:20 *92:13 2.000000
23 *92:4 *92:1 2.000000
24 *92:25 *92:21 2.000000
*END

*D_NET *93 5.473067

*CONN
*I *379:A I *C 39.900 6.300
*I *378:Y O *C 39.300 6.300
*I *381:B I *C 4.500 7.492
*N *93:2 *C 39.900 6.500
*N *93:3 *C 6.300 5.900
*N *93:4 *C 39.300 5.900
*N *93:6 *C 39.300 6.100
*N *93:7 *C 6.300 7.500
*N *93:8 *C 6.300 5.900
*N *93:10 *C 4.500 7.500
*N *93:11 *C 39.300 6.300
*N *93:12 *C 39.900 6.300
*N *93:13 *C 4.500 7.500
*N *93:14 *C 6.300 7.500
*N *93:15 *C 39.300 5.900
*N *93:16 *C 39.300 5.900

*CAP
1 *379:A 0.013494
2 *93:2 0.013494
3 *93:3 2.345698
4 *93:4 2.345698
5 *378:Y 0.023070
6 *93:6 0.023070
7 *93:7 0.141972
8 *93:8 0.141972
9 *381:B 0.004858
10 *93:10 0.004858
11 *93:11 0.059104
12 *93:12 0.044109
13 *93:13 0.148338
14 *93:14 0.148338
15 *93:15 0.014995

*RES
1 *379:A *93:2 0.182800
2 *93:3 *93:4 30.162000
3 *93:6 *378:Y 0.182800
4 *93:8 *93:7 1.462400
5 *381:B *93:10 0.007312
6 *93:11 *93:12 0.548400
7 *93:13 *93:14 1.645200
8 *93:15 *93:11 0.365600
9 *93:4 *93:16 2.000000
10 *93:3 *93:8 2.000000
11 *93:12 *379:A 2.000000
12 *93:13 *93:10 2.000000
13 *93:7 *93:14 2.000000
14 *93:16 *93:15 2.000000
15 *93:11 *378:Y 2.000000
*END

*D_NET *94 7.644973

*CONN
*I *394:A0 I *C 28.900 7.875
*I *380:A0 I *C 2.900 7.515
*I *379:Y O *C 40.500 6.100
*I *392:A0 I *C 26.700 7.500
*N *94:1 *C 26.300 3.300
*N *94:2 *C 3.900 3.300
*N *94:3 *C 3.900 3.300
*N *94:4 *C 3.900 6.500
*N *94:5 *C 29.100 7.500
*N *94:6 *C 33.800 7.500
*N *94:8 *C 29.100 7.875
*N *94:9 *C 26.300 7.500
*N *94:10 *C 33.800 7.700
*N *94:11 *C 40.500 7.700
*N *94:12 *C 26.300 7.500
*N *94:13 *C 26.300 3.300
*N *94:14 *C 29.100 7.900
*N *94:15 *C 2.900 6.500
*N *94:17 *C 26.300 7.500
*N *94:18 *C 26.700 7.500
*N *94:19 *C 29.100 7.715
*N *94:20 *C 29.100 7.900
*N *94:21 *C 29.100 7.715
*N *94:22 *C 40.500 7.700
*N *94:25 *C 26.700 7.515
*N *94:26 *C 3.900 6.500
*N *94:27 *C 2.900 6.500
*N *94:28 *C 40.500 7.700
*N *94:29 *C 40.500 7.700
*N *94:30 *C 29.100 7.900

*CAP
1 *94:1 1.867638
2 *94:2 1.867638
3 *94:3 0.255150
4 *94:4 0.255150
5 *94:5 0.678033
6 *94:6 0.415899
7 *394:A0 0.009569
8 *94:8 0.018239
9 *94:9 0.260894
10 *94:10 0.380304
11 *94:11 0.369533
12 *94:12 0.320066
13 *94:13 0.320066
14 *94:14 0.008670
15 *94:15 0.088182
16 *380:A0 0.088182
17 *94:17 0.049902
18 *94:18 0.049902
19 *94:19 0.012010
20 *94:20 0.028215
21 *94:21 0.028215
22 *94:22 0.057533
23 *379:Y 0.057533
24 *392:A0 0.004765
25 *94:25 0.004765
26 *94:26 0.074463
27 *94:27 0.074463

*RES
1 *94:2 *94:1 20.473600
2 *94:3 *94:4 2.924800
3 *94:5 *94:6 4.295800
4 *394:A0 *94:8 0.182800
5 *94:9 *94:5 2.559200
6 *94:10 *94:11 6.123800
7 *94:13 *94:12 3.838800
8 *94:8 *94:14 0.022850
9 *94:15 *380:A0 0.927710
10 *94:6 *94:10 0.182800
11 *94:17 *94:18 0.365600
12 *94:5 *94:19 0.196510
13 *94:21 *94:20 0.169090
14 *379:Y *94:22 1.462400
15 *392:A0 *94:25 0.013710
16 *94:27 *94:26 0.914000
17 *94:11 *94:28 2.000000
18 *94:28 *94:29 2.000000
19 *94:4 *94:26 2.000000
20 *94:12 *94:17 2.000000
21 *94:18 *392:A0 2.000000
22 *94:29 *94:22 2.000000
23 *94:13 *94:1 2.000000
24 *94:20 *94:30 2.000000
25 *94:19 *94:21 2.000000
26 *94:27 *94:15 2.000000
27 *94:3 *94:2 2.000000
28 *94:30 *94:14 2.000000
29 *94:9 *94:12 2.000000
*END

*D_NET *95 3.944497

*CONN
*I *511:A1 I *C 17.100 17.300
*I *503:A1 I *C 6.500 17.300
*I *380:Y O *C 3.700 7.892
*I *504:B I *C 7.500 17.685
*I *510:A2 I *C 15.900 17.500
*N *95:2 *C 16.900 17.300
*N *95:3 *C 10.300 18.100
*N *95:4 *C 7.500 18.100
*N *95:5 *C 15.500 17.500
*N *95:6 *C 15.900 17.500
*N *95:7 *C 6.500 18.100
*N *95:9 *C 16.900 16.900
*N *95:10 *C 5.900 11.100
*N *95:11 *C 6.100 11.100
*N *95:12 *C 6.100 9.700
*N *95:13 *C 3.700 9.700
*N *95:14 *C 6.500 18.100
*N *95:15 *C 16.900 16.900
*N *95:16 *C 15.300 16.900
*N *95:17 *C 3.700 9.700
*N *95:19 *C 15.300 17.300
*N *95:20 *C 15.500 17.300
*N *95:21 *C 6.500 16.700
*N *95:22 *C 15.300 16.700
*N *95:23 *C 5.900 16.700
*N *95:24 *C 7.500 18.100
*N *95:26 *C 10.300 16.900
*N *95:27 *C 15.500 17.500
*N *95:28 *C 6.100 9.700
*N *95:29 *C 15.300 16.700
*N *95:30 *C 10.300 16.900
*N *95:31 *C 10.300 18.100
*N *95:32 *C 16.900 16.900
*N *95:33 *C 16.900 16.900

*CAP
1 *511:A1 0.009698
2 *95:2 0.031834
3 *95:3 0.250676
4 *95:4 0.352257
5 *95:5 0.045959
6 *95:6 0.045959
7 *95:7 0.064659
8 *503:A1 0.097359
9 *95:9 0.022136
10 *95:10 0.229130
11 *95:11 0.097200
12 *95:12 0.138145
13 *95:13 0.138145
14 *95:14 0.101581
15 *95:15 0.114488
16 *95:16 0.669891
17 *95:17 0.073388
18 *380:Y 0.073388
19 *95:19 0.062972
20 *95:20 0.040812
21 *95:21 0.055028
22 *95:22 0.046604
23 *95:23 0.241888
24 *95:24 0.023165
25 *504:B 0.023165
26 *95:26 0.542301
27 *95:27 0.024443
28 *95:28 0.087630
29 *95:29 0.013101
30 *95:30 0.113748
31 *95:31 0.113748

*RES
1 *95:2 *511:A1 0.182800
2 *95:4 *95:3 2.559200
3 *95:5 *95:6 0.365600
4 *503:A1 *95:7 0.731200
5 *95:9 *95:2 0.365600
6 *95:10 *95:11 0.182800
7 *95:13 *95:12 2.193600
8 *95:14 *95:4 0.914000
9 *95:16 *95:15 1.462400
10 *380:Y *95:17 1.652512
11 *95:19 *95:20 0.182800
12 *95:21 *503:A1 0.548400
13 *95:22 *95:19 0.548400
14 *95:23 *95:21 0.548400
15 *504:B *95:24 0.379310
16 *95:10 *95:23 5.118400
17 *95:26 *95:16 4.570000
18 *95:20 *95:27 0.182800
19 *95:28 *95:11 1.279600
20 *95:29 *95:16 0.182800
21 *95:30 *95:31 1.096800
22 *95:31 *95:3 2.000000
23 *95:32 *95:9 2.000000
24 *95:26 *95:30 2.000000
25 *95:27 *95:5 2.000000
26 *95:4 *95:24 2.000000
27 *95:13 *95:17 2.000000
28 *95:33 *95:32 2.000000
29 *95:6 *510:A2 2.000000
30 *95:12 *95:28 2.000000
31 *95:14 *95:7 2.000000
32 *95:29 *95:22 2.000000
33 *95:15 *95:33 2.000000
*END

*D_NET *96 1.188070

*CONN
*I *383:A I *C 9.900 7.695
*I *382:B I *C 6.300 7.695
*I *381:Y O *C 4.700 7.892
*N *96:1 *C 6.100 7.695
*N *96:2 *C 6.100 8.300
*N *96:3 *C 9.900 8.500
*N *96:6 *C 4.700 8.300
*N *96:8 *C 6.100 8.500
*N *96:9 *C 9.900 8.500
*N *96:10 *C 6.100 8.300
*N *96:11 *C 4.700 8.300

*CAP
1 *96:1 0.035641
2 *96:2 0.026072
3 *96:3 0.062769
4 *383:A 0.062769
5 *382:B 0.009569
6 *96:6 0.022290
7 *381:Y 0.022290
8 *96:8 0.355925
9 *96:9 0.346928
10 *96:10 0.126407
11 *96:11 0.117410

*RES
1 *96:1 *96:2 0.552970
2 *383:A *96:3 0.735770
3 *96:1 *382:B 0.182800
4 *381:Y *96:6 0.372912
5 *96:8 *96:9 3.473200
6 *96:11 *96:10 1.279600
7 *96:10 *96:8 0.182800
8 *96:11 *96:6 2.000000
9 *96:10 *96:2 2.000000
10 *96:9 *96:3 2.000000
*END

*D_NET *97 4.451869

*CONN
*I *394:B0 I *C 29.500 7.492
*I *380:B0 I *C 3.500 7.692
*I *384:Z O *C 11.300 7.900
*I *381:AN I *C 4.100 7.492
*I *392:B0 I *C 27.300 7.492
*N *97:1 *C 29.500 8.500
*N *97:3 *C 11.700 8.100
*N *97:4 *C 11.700 8.300
*N *97:6 *C 3.500 7.300
*N *97:7 *C 22.100 8.300
*N *97:8 *C 6.300 8.100
*N *97:9 *C 11.700 7.900
*N *97:10 *C 11.300 7.900
*N *97:12 *C 11.300 7.892
*N *97:13 *C 22.100 8.300
*N *97:14 *C 22.100 8.500
*N *97:16 *C 4.100 8.100
*N *97:17 *C 22.100 8.500
*N *97:18 *C 27.300 8.500
*N *97:19 *C 11.700 8.100
*N *97:20 *C 11.700 7.900
*N *97:21 *C 4.100 8.100
*N *97:22 *C 6.300 8.100
*N *97:23 *C 4.100 7.300
*N *97:24 *C 29.500 8.500
*N *97:25 *C 27.300 8.500
*N *97:27 *C 6.300 8.100

*CAP
1 *97:1 0.091460
2 *394:B0 0.091460
3 *97:3 0.335094
4 *97:4 0.710455
5 *380:B0 0.021640
6 *97:6 0.043968
7 *97:7 0.697353
8 *97:8 0.321992
9 *97:9 0.049902
10 *97:10 0.049902
11 *384:Z 0.010700
12 *97:12 0.010700
13 *97:13 0.024893
14 *97:14 0.024893
15 *381:AN 0.034893
16 *97:16 0.026215
17 *97:17 0.429068
18 *97:18 0.645190
19 *97:19 0.028372
20 *97:20 0.028372
21 *97:21 0.208616
22 *97:22 0.208616
23 *97:23 0.031005
24 *97:24 0.216122
25 *97:25 0.055494
26 *392:B0 0.055494

*RES
1 *394:B0 *97:1 0.921312
2 *97:3 *97:4 0.182800
3 *97:6 *380:B0 0.358288
4 *97:4 *97:7 9.505600
5 *97:8 *97:3 4.935600
6 *97:10 *97:9 0.365600
7 *97:12 *384:Z 0.007312
8 *97:13 *97:14 0.182800
9 *381:AN *97:16 0.555712
10 *97:17 *97:18 4.752800
11 *97:20 *97:19 0.182800
12 *97:21 *97:22 2.010800
13 *97:6 *97:23 0.548400
14 *97:23 *381:AN 0.175488
15 *97:18 *97:24 2.010800
16 *392:B0 *97:25 0.921312
17 *97:20 *97:9 2.000000
18 *97:7 *97:13 2.000000
19 *97:10 *384:Z 2.000000
20 *97:27 *97:22 2.000000
21 *97:21 *97:16 2.000000
22 *97:8 *97:27 2.000000
23 *97:24 *97:1 2.000000
24 *97:18 *97:25 2.000000
25 *97:3 *97:19 2.000000
26 *97:14 *97:17 2.000000
*END

*D_NET *98 8.598110

*CONN
*I *390:B I *C 23.100 7.895
*I *511:B0 I *C 17.300 17.500
*I *386:Q O *C 20.100 7.710
*I *466:B I *C 30.100 13.500
*I *555:A I *C 3.300 20.300
*I *393:A I *C 28.300 7.510
*I *510:A0 I *C 15.300 17.300
*N *98:1 *C 17.300 17.100
*N *98:2 *C 19.500 17.100
*N *98:3 *C 23.100 8.300
*N *98:5 *C 19.500 17.700
*N *98:6 *C 28.300 6.500
*N *98:7 *C 28.900 6.500
*N *98:8 *C 21.700 17.700
*N *98:9 *C 28.900 13.500
*N *98:10 *C 29.700 13.500
*N *98:11 *C 3.700 20.300
*N *98:12 *C 3.700 23.500
*N *98:13 *C 22.100 8.300
*N *98:14 *C 20.100 8.300
*N *98:15 *C 15.100 23.500
*N *98:16 *C 15.100 17.900
*N *98:17 *C 16.300 16.900
*N *98:18 *C 16.300 17.100
*N *98:19 *C 28.300 4.500
*N *98:20 *C 28.300 6.500
*N *98:21 *C 15.700 17.900
*N *98:22 *C 15.700 17.100
*N *98:23 *C 15.700 16.900
*N *98:24 *C 17.300 17.100
*N *98:26 *C 21.700 16.700
*N *98:27 *C 22.100 16.700
*N *98:28 *C 23.100 4.500
*N *98:29 *C 28.300 4.500
*N *98:30 *C 22.100 8.300
*N *98:31 *C 20.100 8.300
*N *98:33 *C 29.700 13.500
*N *98:34 *C 30.100 13.500
*N *98:36 *C 30.100 13.492
*N *98:37 *C 21.700 17.700
*N *98:38 *C 15.700 17.100
*N *98:40 *C 23.100 4.500
*N *98:41 *C 28.900 6.500
*N *98:44 *C 15.300 17.685
*N *98:45 *C 15.300 17.100
*N *98:46 *C 15.300 17.300
*N *98:47 *C 23.100 8.300
*N *98:48 *C 3.700 23.500
*N *98:49 *C 15.100 23.500

*CAP
1 *98:1 0.168849
2 *98:2 0.122879
3 *98:3 0.021301
4 *390:B 0.165883
5 *98:5 0.215793
6 *98:6 0.045702
7 *98:7 0.045702
8 *98:8 0.187171
9 *98:9 0.620443
10 *98:10 0.035930
11 *98:11 0.166208
12 *98:12 0.150260
13 *98:13 0.226049
14 *98:14 0.125547
15 *98:15 0.468439
16 *98:16 0.491697
17 *98:17 0.037257
18 *98:18 0.080389
19 *98:19 0.168415
20 *98:20 0.217315
21 *98:21 0.085880
22 *98:22 0.062622
23 *98:23 0.037533
24 *98:24 0.021115
25 *511:B0 0.021115
26 *98:26 0.099115
27 *98:27 0.609380
28 *98:28 0.392573
29 *98:29 0.392573
30 *98:30 0.591167
31 *98:31 0.032585
32 *386:Q 0.032585
33 *98:33 0.041962
34 *98:34 0.041962
35 *466:B 0.007188
36 *98:36 0.007188
37 *98:37 0.080902
38 *98:38 0.039949
39 *555:A 0.015949
40 *98:40 0.144582
41 *98:41 0.584513
42 *393:A 0.048900
43 *510:A0 0.039033
44 *98:44 0.039033
45 *98:45 0.042358
46 *98:46 0.008481
47 *98:47 0.100502
48 *98:48 0.608069
49 *98:49 0.608069

*RES
1 *98:1 *98:2 2.010800
2 *390:B *98:3 0.370170
3 *98:2 *98:5 0.548400
4 *98:6 *98:7 0.548400
5 *98:5 *98:8 2.010800
6 *98:9 *98:10 0.731200
7 *98:11 *98:12 2.924800
8 *98:14 *98:13 1.828000
9 *98:16 *98:15 5.118400
10 *98:17 *98:18 0.182800
11 *98:19 *98:20 1.828000
12 *98:22 *98:21 0.731200
13 *98:23 *98:17 0.548400
14 *98:16 *98:21 0.548400
15 *98:24 *511:B0 0.365600
16 *98:26 *98:27 0.365600
17 *98:28 *98:29 4.752800
18 *98:30 *98:27 7.677600
19 *386:Q *98:31 0.539260
20 *98:33 *98:34 0.365600
21 *98:36 *466:B 0.007312
22 *98:26 *98:37 0.914000
23 *98:23 *98:38 0.182800
24 *555:A *98:11 0.365600
25 *98:40 *390:B 3.103030
26 *98:41 *98:9 6.398000
27 *98:20 *393:A 0.923140
28 *98:18 *98:1 0.914000
29 *510:A0 *98:44 0.351890
30 *98:45 *98:46 0.182800
31 *98:45 *98:38 0.365600
32 *98:13 *98:47 0.914000
33 *98:48 *98:49 10.419600
34 *98:41 *98:7 2.000000
35 *98:46 *510:A0 2.000000
36 *98:48 *98:12 2.000000
37 *98:15 *98:49 2.000000
38 *98:47 *98:3 2.000000
39 *98:34 *466:B 2.000000
40 *98:6 *98:20 2.000000
41 *98:8 *98:37 2.000000
42 *98:29 *98:19 2.000000
43 *98:10 *98:33 2.000000
44 *98:22 *98:38 2.000000
45 *98:28 *98:40 2.000000
46 *98:14 *98:31 2.000000
47 *98:1 *98:24 2.000000
48 *98:13 *98:30 2.000000
*END

*D_NET *99 2.278151

*CONN
*I *387:A I *C 20.500 7.510
*I *388:B I *C 21.500 7.500
*I *400:Q O *C 7.100 8.900
*N *99:1 *C 15.700 8.300
*N *99:2 *C 15.700 7.900
*N *99:3 *C 15.700 7.900
*N *99:4 *C 17.000 7.900
*N *99:5 *C 17.300 8.300
*N *99:6 *C 17.300 8.100
*N *99:7 *C 20.500 8.100
*N *99:9 *C 20.500 7.500
*N *99:11 *C 21.500 7.692
*N *99:12 *C 17.000 8.300
*N *99:13 *C 7.100 8.300
*N *99:14 *C 15.700 8.300
*N *99:15 *C 20.500 7.500
*N *99:16 *C 21.500 7.500
*N *99:17 *C 20.500 8.100
*N *99:19 *C 7.100 8.300

*CAP
1 *99:1 0.031835
2 *99:2 0.031835
3 *99:3 0.060169
4 *99:4 0.075551
5 *99:5 0.032768
6 *99:6 0.231611
7 *99:7 0.222227
8 *387:A 0.036788
9 *99:9 0.001872
10 *388:B 0.012328
11 *99:11 0.012328
12 *99:12 0.038766
13 *99:13 0.627469
14 *99:14 0.627469
15 *99:15 0.068623
16 *99:16 0.068623
17 *99:17 0.034916
18 *400:Q 0.031486
19 *99:19 0.031486

*RES
1 *99:2 *99:1 0.365600
2 *99:3 *99:4 1.188200
3 *99:6 *99:5 0.182800
4 *99:6 *99:7 2.924800
5 *99:9 *387:A 0.009140
6 *388:B *99:11 0.175488
7 *99:12 *99:5 0.274200
8 *99:4 *99:12 0.365600
9 *99:13 *99:14 7.860400
10 *99:15 *99:16 0.914000
11 *387:A *99:17 0.539260
12 *99:19 *400:Q 0.548400
13 *99:15 *99:9 2.000000
14 *99:13 *99:19 2.000000
15 *99:1 *99:14 2.000000
16 *99:7 *99:17 2.000000
17 *99:16 *388:B 2.000000
18 *99:2 *99:3 2.000000
*END

*D_NET *100 9.139866

*CONN
*I *469:A I *C 37.100 13.292
*I *387:Y O *C 20.700 7.895
*I *508:B0 I *C 12.700 17.700
*I *556:A1 I *C 5.300 20.100
*I *509:B0 I *C 13.900 17.500
*N *100:1 *C 5.300 19.700
*N *100:2 *C 7.900 19.700
*N *100:3 *C 14.900 14.500
*N *100:4 *C 14.900 13.900
*N *100:5 *C 20.900 21.700
*N *100:6 *C 37.100 21.700
*N *100:7 *C 37.100 21.700
*N *100:8 *C 37.100 16.500
*N *100:9 *C 20.700 14.100
*N *100:10 *C 20.900 14.100
*N *100:11 *C 7.900 18.100
*N *100:12 *C 12.300 18.100
*N *100:13 *C 13.100 17.700
*N *100:14 *C 13.100 17.000
*N *100:15 *C 13.100 18.100
*N *100:16 *C 37.100 16.500
*N *100:18 *C 20.700 11.100
*N *100:20 *C 12.700 18.100
*N *100:22 *C 12.300 17.700
*N *100:23 *C 13.100 17.700
*N *100:24 *C 13.300 14.500
*N *100:25 *C 14.900 14.500
*N *100:26 *C 13.300 17.000
*N *100:27 *C 7.900 19.700
*N *100:28 *C 7.900 18.100
*N *100:29 *C 20.900 21.700
*N *100:30 *C 16.500 14.100
*N *100:31 *C 20.700 14.100
*N *100:32 *C 14.900 13.900
*N *100:33 *C 16.500 13.900
*N *100:35 *C 5.300 19.700
*N *100:36 *C 12.300 18.100
*N *100:37 *C 12.300 17.700
*N *100:38 *C 20.700 11.100
*N *100:39 *C 13.300 14.500
*N *100:40 *C 13.900 17.700
*N *100:41 *C 13.900 17.500
*N *100:42 *C 20.700 11.100
*N *100:44 *C 37.100 16.500

*CAP
1 *100:1 0.221978
2 *100:2 0.221978
3 *100:3 0.071335
4 *100:4 0.071335
5 *100:5 0.899669
6 *100:6 0.899669
7 *100:7 0.496468
8 *100:8 0.496468
9 *100:9 0.265918
10 *100:10 0.623431
11 *100:11 0.315109
12 *100:12 0.315109
13 *100:13 0.062687
14 *100:14 0.055112
15 *100:15 0.030567
16 *100:16 0.225824
17 *469:A 0.225824
18 *100:18 0.155057
19 *387:Y 0.155057
20 *100:20 0.031153
21 *508:B0 0.016200
22 *100:22 0.085038
23 *100:23 0.155771
24 *100:24 0.159932
25 *100:25 0.159932
26 *100:26 0.107510
27 *100:27 0.109367
28 *100:28 0.109367
29 *100:29 0.612729
30 *100:30 0.491322
31 *100:31 0.471721
32 *100:32 0.100872
33 *100:33 0.120473
34 *556:A1 0.027281
35 *100:35 0.027281
36 *100:36 0.050953
37 *100:37 0.050953
38 *100:38 0.255216
39 *100:39 0.099471
40 *100:40 0.079730
41 *100:41 0.008997

*RES
1 *100:1 *100:2 2.376400
2 *100:4 *100:3 0.548400
3 *100:5 *100:6 14.806800
4 *100:8 *100:7 4.752800
5 *100:9 *100:10 0.182800
6 *100:11 *100:12 4.021600
7 *100:14 *100:13 0.639800
8 *100:13 *100:15 0.365600
9 *469:A *100:16 2.932112
10 *387:Y *100:18 2.929370
11 *508:B0 *100:20 0.365600
12 *100:22 *100:23 0.731200
13 *100:24 *100:25 1.462400
14 *100:20 *100:15 0.365600
15 *100:14 *100:26 0.182800
16 *100:28 *100:27 1.462400
17 *100:10 *100:29 6.946400
18 *100:30 *100:31 3.838800
19 *100:32 *100:33 1.462400
20 *100:35 *556:A1 0.365600
21 *100:33 *100:30 0.182800
22 *100:37 *100:36 0.365600
23 *100:38 *100:9 2.742000
24 *100:39 *100:26 2.285000
25 *100:23 *100:40 0.731200
26 *100:41 *100:40 0.182800
27 *100:38 *100:42 2.000000
28 *100:5 *100:29 2.000000
29 *100:41 *509:B0 2.000000
30 *100:27 *100:2 2.000000
31 *100:8 *100:44 2.000000
32 *100:11 *100:28 2.000000
33 *100:6 *100:7 2.000000
34 *100:44 *100:16 2.000000
35 *100:37 *100:22 2.000000
36 *100:12 *100:36 2.000000
37 *100:23 *100:13 2.000000
38 *100:3 *100:25 2.000000
39 *100:31 *100:9 2.000000
40 *100:42 *100:18 2.000000
41 *100:1 *100:35 2.000000
42 *100:32 *100:4 2.000000
43 *100:24 *100:39 2.000000
*END

*D_NET *101 1.720033

*CONN
*I *397:B I *C 34.300 7.895
*I *389:A I *C 22.100 7.700
*I *388:Z O *C 21.700 7.892
*N *101:1 *C 22.500 8.100
*N *101:2 *C 33.800 8.100
*N *101:3 *C 22.100 7.700
*N *101:4 *C 22.500 7.700
*N *101:5 *C 34.300 8.300
*N *101:7 *C 33.800 8.300
*N *101:9 *C 22.100 7.692
*N *101:11 *C 21.700 7.700
*N *101:12 *C 21.700 7.700
*N *101:13 *C 22.500 7.700
*N *101:14 *C 22.500 8.100
*N *101:15 *C 34.300 8.300
*N *101:16 *C 34.300 8.300
*N *101:17 *C 34.300 8.300

*CAP
1 *101:1 0.677024
2 *101:2 0.686950
3 *101:3 0.068868
4 *101:4 0.031572
5 *101:5 0.017160
6 *397:B 0.017160
7 *101:7 0.042043
8 *389:A 0.006767
9 *101:9 0.006767
10 *388:Z 0.016319
11 *101:11 0.016319
12 *101:12 0.037296
13 *101:13 0.031835
14 *101:14 0.031835
15 *101:15 0.032117

*RES
1 *101:1 *101:2 10.328200
2 *101:3 *101:4 0.365600
3 *397:B *101:5 0.370170
4 *101:2 *101:7 0.182800
5 *101:9 *389:A 0.007312
6 *101:11 *388:Z 0.175488
7 *101:12 *101:3 0.365600
8 *101:13 *101:14 0.365600
9 *101:7 *101:15 0.457000
10 *101:16 *101:5 2.000000
11 *101:12 *101:11 2.000000
12 *101:17 *101:16 2.000000
13 *101:1 *101:14 2.000000
14 *101:13 *101:4 2.000000
15 *101:3 *389:A 2.000000
16 *101:15 *101:17 2.000000
*END

*D_NET *102 0.350931

*CONN
*I *389:B I *C 22.300 7.895
*I *390:Y O *C 23.500 7.310
*N *102:1 *C 22.300 7.100
*N *102:2 *C 23.500 7.100
*N *102:4 *C 22.300 7.100
*N *102:5 *C 23.500 7.100

*CAP
1 *102:1 0.100585
2 *102:2 0.100585
3 *389:B 0.061805
4 *102:4 0.061805
5 *102:5 0.013076
6 *390:Y 0.013076

*RES
1 *102:1 *102:2 1.096800
2 *102:4 *389:B 0.726630
3 *102:5 *390:Y 0.191940
4 *102:1 *102:4 2.000000
5 *102:2 *102:5 2.000000
*END

*D_NET *103 0.720716

*CONN
*I *389:Y O *C 22.500 7.310
*I *391:C0 I *C 25.900 7.695
*N *103:2 *C 22.500 8.100
*N *103:3 *C 25.900 8.100
*N *103:5 *C 22.500 8.100
*N *103:6 *C 25.900 8.100

*CAP
1 *389:Y 0.075994
2 *103:2 0.075994
3 *103:3 0.020662
4 *391:C0 0.020662
5 *103:5 0.263703
6 *103:6 0.263703

*RES
1 *389:Y *103:2 0.722060
2 *391:C0 *103:3 0.370170
3 *103:5 *103:6 3.107600
4 *103:5 *103:2 2.000000
5 *103:6 *103:3 2.000000
*END

*D_NET *104 0.504887

*CONN
*I *391:A0 I *C 24.700 7.692
*I *392:Y O *C 27.900 7.300
*N *104:1 *C 24.700 7.300
*N *104:2 *C 27.900 7.300
*N *104:4 *C 24.700 7.300
*N *104:6 *C 27.900 7.265

*CAP
1 *104:1 0.209967
2 *104:2 0.209967
3 *391:A0 0.033245
4 *104:4 0.033245
5 *392:Y 0.009231
6 *104:6 0.009231

*RES
1 *104:1 *104:2 2.924800
2 *104:4 *391:A0 0.358288
3 *104:6 *392:Y 0.031990
4 *104:2 *392:Y 2.000000
5 *104:1 *104:4 2.000000
*END

*D_NET *105 0.349726

*CONN
*I *392:C0 I *C 27.500 7.692
*I *393:Y O *C 28.700 7.492
*N *105:2 *C 27.500 7.265
*N *105:3 *C 27.700 7.100
*N *105:4 *C 28.700 7.100
*N *105:5 *C 27.700 7.265
*N *105:6 *C 28.700 7.100
*N *105:8 *C 27.700 7.100

*CAP
1 *392:C0 0.030007
2 *105:2 0.039577
3 *105:3 0.099185
4 *105:4 0.099185
5 *105:5 0.023540
6 *105:6 0.022130
7 *393:Y 0.022130
8 *105:8 0.013971

*RES
1 *105:2 *392:C0 0.390278
2 *105:3 *105:4 0.914000
3 *105:2 *105:5 0.182800
4 *105:6 *393:Y 0.358288
5 *105:8 *105:5 0.150810
6 *105:3 *105:8 2.000000
7 *105:4 *105:6 2.000000
*END

*D_NET *106 1.104572

*CONN
*I *391:A1 I *C 24.100 7.515
*I *394:Y O *C 30.100 7.495
*N *106:1 *C 24.100 8.300
*N *106:2 *C 30.100 8.300
*N *106:4 *C 24.100 8.300
*N *106:5 *C 30.100 8.300

*CAP
1 *106:1 0.481877
2 *106:2 0.481877
3 *391:A1 0.033967
4 *106:4 0.033967
5 *106:5 0.036442
6 *394:Y 0.036442

*RES
1 *106:1 *106:2 5.484000
2 *391:A1 *106:4 0.717490
3 *394:Y *106:5 0.735770
4 *106:2 *106:5 2.000000
5 *106:1 *106:4 2.000000
*END

*D_NET *107 0.277812

*CONN
*I *395:Y O *C 30.900 7.500
*I *394:C0 I *C 29.700 7.692
*N *107:2 *C 30.900 7.492
*N *107:4 *C 29.700 7.500
*N *107:5 *C 29.900 7.500
*N *107:6 *C 29.900 7.500
*N *107:7 *C 30.900 7.500

*CAP
1 *395:Y 0.007073
2 *107:2 0.007073
3 *394:C0 0.021812
4 *107:4 0.031381
5 *107:5 0.009569
6 *107:6 0.100452
7 *107:7 0.100452

*RES
1 *107:2 *395:Y 0.007312
2 *107:4 *394:C0 0.175488
3 *107:4 *107:5 0.182800
4 *107:6 *107:7 0.914000
5 *107:7 *395:Y 2.000000
6 *107:6 *107:5 2.000000
*END

*D_NET *108 6.675783

*CONN
*I *511:A0 I *C 16.700 17.300
*I *504:A I *C 7.900 17.490
*I *391:B0 I *C 25.500 7.692
*I *382:Y O *C 7.700 7.700
*I *503:A0 I *C 6.100 17.500
*I *510:A1 I *C 15.700 17.300
*N *108:1 *C 7.700 17.000
*N *108:2 *C 7.700 9.500
*N *108:4 *C 16.700 17.500
*N *108:5 *C 15.900 17.100
*N *108:6 *C 15.900 17.300
*N *108:7 *C 17.300 7.700
*N *108:8 *C 17.300 6.700
*N *108:9 *C 7.900 17.000
*N *108:11 *C 7.700 17.490
*N *108:12 *C 7.700 17.100
*N *108:13 *C 17.300 6.700
*N *108:14 *C 25.500 6.700
*N *108:15 *C 15.900 17.300
*N *108:16 *C 15.700 17.300
*N *108:17 *C 25.500 6.700
*N *108:19 *C 7.700 17.500
*N *108:20 *C 7.900 17.500
*N *108:21 *C 7.700 17.500
*N *108:22 *C 6.100 17.500
*N *108:23 *C 7.900 17.500
*N *108:24 *C 7.900 17.100
*N *108:25 *C 7.700 9.500
*N *108:27 *C 7.700 17.100
*N *108:28 *C 16.700 17.300
*N *108:29 *C 7.700 7.700
*N *108:30 *C 17.300 7.700
*N *108:31 *C 7.700 7.495
*N *108:32 *C 7.700 9.500
*N *108:33 *C 15.900 17.300
*N *108:35 *C 7.700 7.700
*N *108:36 *C 7.700 7.700

*CAP
1 *108:1 0.664018
2 *108:2 0.649210
3 *511:A0 0.013799
4 *108:4 0.013799
5 *108:5 0.804246
6 *108:6 0.013101
7 *108:7 0.086099
8 *108:8 0.086099
9 *108:9 0.024155
10 *504:A 0.010854
11 *108:11 0.015802
12 *108:12 0.791144
13 *108:13 0.669313
14 *108:14 0.669313
15 *108:15 0.081993
16 *108:16 0.024737
17 *108:17 0.038892
18 *391:B0 0.038892
19 *108:19 0.174465
20 *108:20 0.024596
21 *108:21 0.004948
22 *108:22 0.149869
23 *108:23 0.036594
24 *108:24 0.060750
25 *108:25 0.100126
26 *382:Y 0.120573
27 *108:27 0.014808
28 *108:28 0.057256
29 *108:29 0.607942
30 *108:30 0.607942
31 *108:31 0.020446

*RES
1 *108:2 *108:1 6.855000
2 *511:A0 *108:4 0.182800
3 *108:5 *108:6 0.182800
4 *108:8 *108:7 0.914000
5 *108:1 *108:9 0.182800
6 *108:11 *504:A 0.182800
7 *108:12 *108:5 7.494800
8 *108:13 *108:14 7.494800
9 *108:16 *108:15 0.182800
10 *108:17 *391:B0 0.906688
11 *108:19 *108:20 0.182800
12 *108:11 *108:21 0.009140
13 *108:22 *108:19 1.462400
14 *108:24 *108:23 0.365600
15 *382:Y *108:25 1.645200
16 *108:9 *108:24 0.091400
17 *108:27 *108:24 0.182800
18 *108:15 *108:28 0.731200
19 *108:29 *108:30 8.774400
20 *108:31 *382:Y 0.187370
21 *108:32 *108:25 2.000000
22 *108:12 *108:27 2.000000
23 *108:33 *108:15 2.000000
24 *108:8 *108:13 2.000000
25 *108:2 *108:32 2.000000
26 *108:22 *503:A0 2.000000
27 *108:29 *108:35 2.000000
28 *108:19 *108:21 2.000000
29 *108:35 *108:36 2.000000
30 *108:23 *108:20 2.000000
31 *108:36 *382:Y 2.000000
32 *108:6 *108:33 2.000000
33 *108:16 *510:A1 2.000000
34 *108:28 *511:A0 2.000000
35 *108:30 *108:7 2.000000
36 *108:14 *108:17 2.000000
*END

*D_NET *109 1.441928

*CONN
*I *391:Y O *C 26.100 7.900
*I *396:A I *C 31.500 7.695
*N *109:1 *C 28.100 9.900
*N *109:2 *C 28.100 7.900
*N *109:3 *C 28.100 7.900
*N *109:4 *C 26.100 7.900
*N *109:5 *C 31.700 9.900
*N *109:6 *C 28.100 9.900
*N *109:7 *C 31.700 7.695
*N *109:8 *C 31.700 9.900
*N *109:10 *C 26.100 7.892

*CAP
1 *109:1 0.138031
2 *109:2 0.138031
3 *109:3 0.159322
4 *109:4 0.159322
5 *109:5 0.308286
6 *109:6 0.308286
7 *109:7 0.108218
8 *109:8 0.097381
9 *391:Y 0.007107
10 *109:10 0.007107
11 *396:A 0.010837

*RES
1 *109:2 *109:1 1.828000
2 *109:4 *109:3 1.828000
3 *109:6 *109:5 3.290400
4 *109:7 *109:8 2.015370
5 *109:10 *391:Y 0.007312
6 *396:A *109:7 0.182800
7 *109:4 *391:Y 2.000000
8 *109:2 *109:3 2.000000
9 *109:5 *109:8 2.000000
10 *109:1 *109:6 2.000000
*END

*D_NET *110 3.052198

*CONN
*I *469:Y O *C 37.500 13.092
*I *395:B I *C 30.700 7.895
*I *393:B I *C 28.500 8.100
*I *397:A I *C 34.100 7.492
*I *390:C I *C 23.300 7.700
*N *110:1 *C 33.800 7.300
*N *110:2 *C 33.800 7.492
*N *110:4 *C 37.700 13.092
*N *110:5 *C 30.700 7.300
*N *110:8 *C 28.500 7.715
*N *110:10 *C 28.300 8.100
*N *110:11 *C 28.300 7.700
*N *110:12 *C 37.700 11.100
*N *110:13 *C 28.500 8.100
*N *110:15 *C 23.300 7.692
*N *110:16 *C 37.500 7.300
*N *110:17 *C 33.800 7.300
*N *110:18 *C 30.700 7.300
*N *110:19 *C 28.500 7.300
*N *110:20 *C 37.500 11.100
*N *110:21 *C 28.500 7.300
*N *110:22 *C 37.500 7.300
*N *110:23 *C 28.300 7.700
*N *110:24 *C 23.300 7.700
*N *110:25 *C 34.100 7.692
*N *110:26 *C 28.500 8.100

*CAP
1 *110:1 0.010585
2 *110:2 0.023344
3 *469:Y 0.004785
4 *110:4 0.100096
5 *110:5 0.031263
6 *395:B 0.031263
7 *393:B 0.016918
8 *110:8 0.016918
9 *397:A 0.025284
10 *110:10 0.043533
11 *110:11 0.032831
12 *110:12 0.100894
13 *110:13 0.079972
14 *390:C 0.007298
15 *110:15 0.007298
16 *110:16 0.250287
17 *110:17 0.447939
18 *110:18 0.387035
19 *110:19 0.189383
20 *110:20 0.199028
21 *110:21 0.069270
22 *110:22 0.193446
23 *110:23 0.385502
24 *110:24 0.385502
25 *110:25 0.012525

*RES
1 *110:1 *110:2 0.175488
2 *469:Y *110:4 0.182800
3 *110:5 *395:B 0.543830
4 *110:8 *393:B 0.351890
5 *110:2 *397:A 0.274200
6 *110:11 *110:10 0.365600
7 *110:12 *110:4 1.820688
8 *110:10 *110:13 0.182800
9 *110:15 *390:C 0.007312
10 *110:17 *110:16 3.381800
11 *110:19 *110:18 2.010800
12 *110:20 *110:12 0.182800
13 *110:21 *110:13 0.731200
14 *110:22 *110:20 3.473200
15 *110:24 *110:23 4.570000
16 *110:18 *110:17 2.833400
17 *397:A *110:25 0.182800
18 *110:11 *110:23 2.000000
19 *110:18 *110:5 2.000000
20 *110:26 *393:B 2.000000
21 *110:24 *390:C 2.000000
22 *110:21 *110:19 2.000000
23 *110:16 *110:22 2.000000
24 *110:17 *110:1 2.000000
25 *110:13 *110:26 2.000000
*END

*D_NET *111 0.056710

*CONN
*I *397:Y O *C 34.500 7.692
*I *398:B I *C 34.900 7.692
*N *111:2 *C 34.500 7.492

*CAP
1 *397:Y 0.028355
2 *111:2 0.012406
3 *398:B 0.015949

*RES
1 *111:2 *397:Y 0.182800
2 *397:Y *398:B 0.365600
*END

*D_NET *112 0.165356

*CONN
*I *399:Y O *C 36.900 8.100
*I *398:A I *C 36.100 7.695
*N *112:2 *C 36.900 7.892
*N *112:3 *C 36.100 8.100
*N *112:4 *C 36.900 8.100
*N *112:6 *C 36.100 8.100

*CAP
1 *399:Y 0.010526
2 *112:2 0.010526
3 *112:3 0.041152
4 *112:4 0.041152
5 *398:A 0.030999
6 *112:6 0.030999

*RES
1 *112:2 *399:Y 0.190112
2 *112:3 *112:4 0.731200
3 *398:A *112:6 0.370170
4 *112:4 *399:Y 2.000000
5 *112:3 *112:6 2.000000
*END

*D_NET *113 4.003127

*CONN
*I *407:Q O *C 18.500 8.900
*I *401:B I *C 7.900 8.900
*I *402:B I *C 8.900 8.900
*I *558:A I *C 7.100 20.300
*N *113:1 *C 18.500 9.500
*N *113:4 *C 7.900 9.290
*N *113:6 *C 8.900 9.100
*N *113:7 *C 17.000 9.500
*N *113:8 *C 17.300 9.500
*N *113:9 *C 7.100 16.300
*N *113:10 *C 7.500 16.300
*N *113:12 *C 7.100 16.300
*N *113:13 *C 17.000 9.700
*N *113:14 *C 8.500 9.700
*N *113:15 *C 8.500 8.900
*N *113:16 *C 7.500 9.700
*N *113:17 *C 8.500 9.700
*N *113:18 *C 8.500 8.900
*N *113:19 *C 7.900 8.900
*N *113:20 *C 17.300 9.500
*N *113:21 *C 18.500 9.500
*N *113:22 *C 7.500 16.300
*N *113:23 *C 7.500 9.700
*N *113:24 *C 8.900 8.900
*N *113:25 *C 17.300 9.500

*CAP
1 *113:1 0.028522
2 *407:Q 0.028522
3 *401:B 0.038797
4 *113:4 0.038797
5 *402:B 0.029723
6 *113:6 0.029723
7 *113:7 0.049170
8 *113:8 0.034649
9 *113:9 0.046800
10 *113:10 0.046800
11 *558:A 0.187814
12 *113:12 0.187814
13 *113:13 0.586212
14 *113:14 0.071946
15 *113:15 0.071946
16 *113:16 0.075151
17 *113:17 0.646842
18 *113:18 0.095284
19 *113:19 0.060555
20 *113:20 0.129462
21 *113:21 0.129462
22 *113:22 0.677204
23 *113:23 0.677204
24 *113:24 0.034730

*RES
1 *407:Q *113:1 0.548400
2 *401:B *113:4 0.356460
3 *402:B *113:6 0.182800
4 *113:7 *113:8 0.274200
5 *113:9 *113:10 0.365600
6 *113:12 *558:A 3.656000
7 *113:7 *113:13 0.182800
8 *113:15 *113:14 0.731200
9 *113:16 *113:17 0.914000
10 *113:19 *113:18 0.548400
11 *113:20 *113:21 1.096800
12 *113:17 *113:13 7.769000
13 *113:23 *113:22 6.032400
14 *113:18 *113:24 0.365600
15 *113:21 *113:1 2.000000
16 *113:17 *113:14 2.000000
17 *113:8 *113:25 2.000000
18 *113:16 *113:23 2.000000
19 *113:24 *402:B 2.000000
20 *113:25 *113:20 2.000000
21 *113:15 *113:18 2.000000
22 *113:19 *401:B 2.000000
23 *113:9 *113:12 2.000000
24 *113:22 *113:10 2.000000
*END

*D_NET *114 2.900855

*CONN
*I *403:A0 I *C 9.300 9.300
*I *411:A0 I *C 25.700 9.100
*I *401:Y O *C 8.100 9.500
*I *405:AN I *C 11.500 9.290
*N *114:1 *C 14.300 9.700
*N *114:2 *C 25.700 9.700
*N *114:3 *C 11.500 9.290
*N *114:4 *C 11.700 9.290
*N *114:6 *C 9.300 9.285
*N *114:7 *C 11.700 9.300
*N *114:8 *C 9.300 9.300
*N *114:9 *C 9.300 9.100
*N *114:10 *C 25.700 9.700
*N *114:12 *C 14.300 9.300
*N *114:13 *C 10.900 9.300
*N *114:14 *C 11.100 9.300
*N *114:15 *C 8.100 9.300
*N *114:17 *C 8.100 9.300
*N *114:18 *C 10.900 9.100
*N *114:19 *C 11.100 9.290

*CAP
1 *114:1 0.974149
2 *114:2 0.958289
3 *114:3 0.035575
4 *114:4 0.015651
5 *403:A0 0.008590
6 *114:6 0.008590
7 *114:7 0.142335
8 *114:8 0.096962
9 *114:9 0.118476
10 *114:10 0.027240
11 *411:A0 0.027240
12 *114:12 0.156070
13 *114:13 0.023213
14 *114:14 0.020602
15 *114:15 0.092464
16 *401:Y 0.024604
17 *114:17 0.024604
18 *114:18 0.120370
19 *114:19 0.025831

*RES
1 *114:1 *114:2 10.419600
2 *114:3 *114:4 0.182800
3 *114:6 *403:A0 0.013710
4 *114:4 *114:7 0.009140
5 *114:9 *114:8 0.182800
6 *411:A0 *114:10 0.548400
7 *114:7 *114:12 2.376400
8 *114:13 *114:14 0.182800
9 *114:15 *114:8 1.096800
10 *114:17 *401:Y 0.182800
11 *114:18 *114:13 0.182800
12 *114:19 *114:14 0.009140
13 *114:19 *114:3 0.365600
14 *114:9 *114:18 1.462400
15 *114:12 *114:1 0.365600
16 *114:3 *405:AN 2.000000
17 *114:8 *403:A0 2.000000
18 *114:2 *114:10 2.000000
19 *114:15 *114:17 2.000000
*END

*D_NET *115 3.414366

*CONN
*I *405:B I *C 11.900 9.100
*I *403:B0 I *C 9.900 9.100
*I *402:Z O *C 9.100 8.900
*I *411:B0 I *C 26.300 9.300
*N *115:1 *C 11.900 9.700
*N *115:2 *C 13.700 9.700
*N *115:3 *C 9.100 9.700
*N *115:4 *C 9.900 9.700
*N *115:5 *C 13.700 9.900
*N *115:6 *C 26.300 9.900
*N *115:8 *C 11.900 9.700
*N *115:9 *C 9.900 9.500
*N *115:12 *C 9.100 9.700
*N *115:13 *C 9.100 8.700
*N *115:14 *C 9.100 8.700
*N *115:15 *C 11.900 8.700
*N *115:16 *C 26.300 9.900
*N *115:18 *C 9.900 9.500
*N *115:19 *C 11.900 8.700

*CAP
1 *115:1 0.096758
2 *115:2 0.106620
3 *115:3 0.050215
4 *115:4 0.059212
5 *115:5 1.193844
6 *115:6 1.183982
7 *405:B 0.040388
8 *115:8 0.023291
9 *115:9 0.025482
10 *403:B0 0.025482
11 *402:Z 0.066053
12 *115:12 0.050121
13 *115:13 0.015932
14 *115:14 0.197786
15 *115:15 0.197786
16 *115:16 0.027659
17 *411:B0 0.027659
18 *115:18 0.008997
19 *115:19 0.017097

*RES
1 *115:1 *115:2 1.645200
2 *115:3 *115:4 0.731200
3 *115:5 *115:6 11.516400
4 *405:B *115:8 0.548400
5 *403:B0 *115:9 0.365600
6 *115:2 *115:5 0.182800
7 *402:Z *115:12 0.731200
8 *115:13 *402:Z 0.182800
9 *115:14 *115:15 2.559200
10 *411:B0 *115:16 0.548400
11 *115:18 *115:4 0.182800
12 *115:19 *405:B 0.365600
13 *115:1 *115:8 2.000000
14 *115:3 *115:12 2.000000
15 *115:14 *115:13 2.000000
16 *115:6 *115:16 2.000000
17 *115:15 *115:19 2.000000
18 *115:18 *115:9 2.000000
*END

*D_NET *116 2.913326

*CONN
*I *406:A I *C 13.700 8.900
*I *404:Z O *C 11.100 8.674
*I *411:A1 I *C 26.100 9.300
*I *403:A1 I *C 9.700 9.300
*N *116:1 *C 10.500 7.515
*N *116:2 *C 10.500 8.674
*N *116:3 *C 10.300 7.515
*N *116:4 *C 17.700 9.900
*N *116:5 *C 17.700 9.500
*N *116:7 *C 13.700 9.100
*N *116:9 *C 26.100 9.500
*N *116:11 *C 26.100 9.100
*N *116:12 *C 10.300 7.500
*N *116:13 *C 15.500 8.900
*N *116:14 *C 15.500 9.900
*N *116:15 *C 11.100 8.875
*N *116:16 *C 26.100 9.500
*N *116:17 *C 26.100 9.300
*N *116:18 *C 13.700 8.900
*N *116:19 *C 15.500 8.900
*N *116:20 *C 9.700 7.500
*N *116:21 *C 10.300 7.500
*N *116:22 *C 11.100 8.900
*N *116:24 *C 9.700 7.500
*N *116:25 *C 11.100 8.900
*N *116:26 *C 15.500 9.900
*N *116:27 *C 26.100 9.300

*CAP
1 *116:1 0.057921
2 *116:2 0.069854
3 *116:3 0.012712
4 *116:4 0.212672
5 *116:5 0.598625
6 *406:A 0.019646
7 *116:7 0.019646
8 *404:Z 0.028589
9 *116:9 0.575370
10 *411:A1 0.016108
11 *116:11 0.016108
12 *116:12 0.003866
13 *116:13 0.061046
14 *116:14 0.061046
15 *116:15 0.011061
16 *116:16 0.022707
17 *116:17 0.022707
18 *116:18 0.265397
19 *116:19 0.111833
20 *116:20 0.071404
21 *116:21 0.071404
22 *116:22 0.153564
23 *403:A1 0.118686
24 *116:24 0.118686
25 *116:25 0.003251
26 *116:26 0.189417

*RES
1 *116:1 *116:2 1.059326
2 *116:3 *116:1 0.182800
3 *116:5 *116:4 0.365600
4 *406:A *116:7 0.182800
5 *116:2 *404:Z 0.548400
6 *116:5 *116:9 7.677600
7 *116:11 *411:A1 0.182800
8 *116:12 *116:3 0.013710
9 *116:13 *116:14 0.914000
10 *404:Z *116:15 0.183714
11 *116:17 *116:16 0.182800
12 *116:18 *116:19 1.645200
13 *116:20 *116:21 0.548400
14 *116:22 *116:18 2.376400
15 *116:24 *403:A1 1.645200
16 *116:15 *116:25 0.022850
17 *116:26 *116:4 2.010800
18 *116:9 *116:16 2.000000
19 *116:17 *116:27 2.000000
20 *116:27 *411:A1 2.000000
21 *116:26 *116:14 2.000000
22 *116:18 *406:A 2.000000
23 *116:13 *116:19 2.000000
24 *116:21 *116:12 2.000000
25 *116:20 *116:24 2.000000
26 *116:22 *116:25 2.000000
*END

*D_NET *117 4.970579

*CONN
*I *417:A1 I *C 33.700 8.900
*I *422:A I *C 39.900 9.100
*I *418:A1N I *C 34.500 9.100
*I *403:Y O *C 10.100 8.900
*N *117:1 *C 33.100 8.700
*N *117:2 *C 10.100 8.700
*N *117:3 *C 33.100 8.500
*N *117:4 *C 33.100 8.700
*N *117:5 *C 33.700 8.700
*N *117:6 *C 34.500 8.700
*N *117:8 *C 33.700 8.700
*N *117:9 *C 39.900 9.900
*N *117:11 *C 33.700 8.500
*N *117:12 *C 10.100 8.700
*N *117:13 *C 10.100 8.900
*N *117:14 *C 33.100 8.500
*N *117:15 *C 34.500 9.900
*N *117:16 *C 39.900 9.900
*N *117:17 *C 34.500 8.700
*N *117:19 *C 34.500 9.900
*N *117:20 *C 10.100 8.900

*CAP
1 *117:1 1.841240
2 *117:2 1.841240
3 *117:3 0.030572
4 *117:4 0.030572
5 *117:5 0.071375
6 *117:6 0.062304
7 *417:A1 0.015196
8 *117:8 0.015196
9 *117:9 0.038873
10 *422:A 0.038873
11 *117:11 0.058105
12 *117:12 0.025107
13 *117:13 0.025107
14 *117:14 0.049034
15 *117:15 0.341412
16 *117:16 0.341412
17 *117:17 0.019082
18 *418:A1N 0.072481
19 *117:19 0.053398

*RES
1 *117:2 *117:1 21.022000
2 *117:3 *117:4 0.182800
3 *117:5 *117:6 0.731200
4 *117:8 *417:A1 0.182800
5 *422:A *117:9 0.731200
6 *117:11 *117:5 0.182800
7 *117:12 *117:13 0.182800
8 *117:14 *117:11 0.548400
9 *117:15 *117:16 4.935600
10 *117:17 *418:A1N 0.365600
11 *418:A1N *117:19 0.731200
12 *117:20 *403:Y 2.000000
13 *117:15 *117:19 2.000000
14 *117:3 *117:14 2.000000
15 *117:6 *117:17 2.000000
16 *117:16 *117:9 2.000000
17 *117:13 *117:20 2.000000
18 *117:5 *117:8 2.000000
19 *117:1 *117:4 2.000000
20 *117:2 *117:12 2.000000
*END

*D_NET *118 0.032680

*CONN
*I *405:Z O *C 12.100 8.900
*I *406:B I *C 12.500 8.900

*CAP
1 *405:Z 0.016340
2 *406:B 0.016340

*RES
1 *405:Z *406:B 0.365600
*END

*D_NET *119 8.385116

*CONN
*I *423:B I *C 3.500 10.310
*I *421:B I *C 38.100 9.300
*I *559:A I *C 9.100 20.100
*I *418:A0N I *C 34.700 9.100
*I *417:A0 I *C 33.300 9.100
*I *408:Q O *C 22.900 8.900
*N *119:1 *C 33.800 9.100
*N *119:2 *C 33.800 8.700
*N *119:3 *C 22.900 9.100
*N *119:4 *C 33.100 9.100
*N *119:5 *C 35.700 9.100
*N *119:6 *C 35.700 8.700
*N *119:7 *C 6.500 10.700
*N *119:8 *C 6.500 16.700
*N *119:9 *C 6.500 9.100
*N *119:10 *C 11.400 9.100
*N *119:12 *C 3.500 10.700
*N *119:13 *C 22.900 8.900
*N *119:14 *C 9.900 20.100
*N *119:15 *C 9.100 20.100
*N *119:16 *C 6.500 16.700
*N *119:17 *C 9.900 16.700
*N *119:18 *C 38.100 8.700
*N *119:20 *C 9.900 16.700
*N *119:21 *C 9.900 20.100
*N *119:23 *C 9.100 20.300
*N *119:24 *C 34.100 9.100
*N *119:25 *C 34.700 9.100
*N *119:27 *C 34.700 9.485
*N *119:28 *C 34.100 8.700
*N *119:29 *C 34.100 8.700
*N *119:30 *C 34.100 9.100
*N *119:31 *C 11.400 8.900
*N *119:32 *C 3.500 10.700
*N *119:33 *C 6.500 10.700
*N *119:34 *C 22.900 9.100
*N *119:35 *C 22.900 8.900
*N *119:36 *C 38.100 8.700
*N *119:37 *C 33.100 9.100
*N *119:38 *C 33.300 9.100
*N *119:39 *C 6.500 9.100
*N *119:41 *C 33.100 9.100
*N *119:42 *C 22.900 8.900

*CAP
1 *119:1 0.074965
2 *119:2 0.046126
3 *119:3 0.719647
4 *119:4 0.762850
5 *119:5 0.089337
6 *119:6 0.211193
7 *119:7 0.656582
8 *119:8 0.560591
9 *119:9 0.326354
10 *119:10 0.339456
11 *423:B 0.022927
12 *119:12 0.022927
13 *119:13 1.006731
14 *119:14 0.090075
15 *119:15 0.090075
16 *119:16 0.241823
17 *119:17 0.241823
18 *119:18 0.026627
19 *421:B 0.026627
20 *119:20 0.273702
21 *119:21 0.273702
22 *559:A 0.022410
23 *119:23 0.022410
24 *119:24 0.053554
25 *119:25 0.123027
26 *418:A0N 0.041874
27 *119:27 0.041874
28 *119:28 0.025878
29 *119:29 0.041844
30 *119:30 0.041844
31 *119:31 1.008318
32 *119:32 0.240788
33 *119:33 0.240788
34 *119:34 0.022247
35 *119:35 0.022247
36 *119:36 0.191330
37 *119:37 0.022277
38 *119:38 0.022277
39 *119:39 0.095991

*RES
1 *119:2 *119:1 0.365600
2 *119:3 *119:4 9.322800
3 *119:4 *119:1 0.639800
4 *119:6 *119:5 0.365600
5 *119:7 *119:8 5.484000
6 *119:9 *119:10 4.478600
7 *423:B *119:12 0.356460
8 *119:13 *119:3 0.182800
9 *119:15 *119:14 0.731200
10 *119:16 *119:17 3.107600
11 *119:18 *421:B 0.548400
12 *119:20 *119:21 3.107600
13 *559:A *119:23 0.182800
14 *119:24 *119:25 0.548400
15 *119:25 *119:5 0.914000
16 *418:A0N *119:27 0.351890
17 *119:2 *119:28 0.274200
18 *119:29 *119:30 0.365600
19 *119:31 *119:10 0.182800
20 *119:32 *119:33 2.742000
21 *119:31 *119:13 10.511000
22 *119:35 *119:34 0.182800
23 *119:6 *119:36 2.193600
24 *119:37 *119:38 0.182800
25 *119:39 *119:7 1.462400
26 *119:38 *417:A0 2.000000
27 *119:8 *119:16 2.000000
28 *119:9 *119:39 2.000000
29 *119:4 *119:41 2.000000
30 *119:36 *119:18 2.000000
31 *119:42 *408:Q 2.000000
32 *119:32 *119:12 2.000000
33 *119:41 *119:37 2.000000
34 *119:30 *119:24 2.000000
35 *119:15 *559:A 2.000000
36 *119:25 *418:A0N 2.000000
37 *119:7 *119:33 2.000000
38 *119:3 *119:34 2.000000
39 *119:35 *119:42 2.000000
40 *119:21 *119:14 2.000000
41 *119:28 *119:29 2.000000
42 *119:20 *119:17 2.000000
*END

*D_NET *120 5.660789

*CONN
*I *430:Q O *C 19.500 10.692
*I *414:B I *C 30.100 9.100
*I *560:A I *C 11.100 20.300
*I *409:AN I *C 23.300 9.100
*N *120:1 *C 13.900 21.100
*N *120:2 *C 12.500 21.100
*N *120:4 *C 19.500 10.700
*N *120:5 *C 29.900 9.100
*N *120:7 *C 11.900 20.700
*N *120:8 *C 11.100 20.700
*N *120:10 *C 13.900 10.900
*N *120:11 *C 13.900 21.100
*N *120:12 *C 23.500 9.100
*N *120:13 *C 23.500 11.100
*N *120:14 *C 11.900 20.900
*N *120:15 *C 17.700 10.900
*N *120:16 *C 14.100 10.900
*N *120:17 *C 12.500 20.900
*N *120:18 *C 11.900 20.900
*N *120:20 *C 19.500 10.700
*N *120:21 *C 17.700 10.700
*N *120:22 *C 29.900 11.100
*N *120:23 *C 19.500 9.100
*N *120:24 *C 14.100 10.900
*N *120:25 *C 23.300 9.100
*N *120:26 *C 19.500 9.100
*N *120:27 *C 23.500 11.100
*N *120:28 *C 29.900 11.100
*N *120:29 *C 17.700 10.700
*N *120:30 *C 17.700 10.900

*CAP
1 *120:1 0.123341
2 *120:2 0.132338
3 *430:Q 0.108039
4 *120:4 0.010700
5 *120:5 0.126254
6 *414:B 0.009569
7 *120:7 0.047874
8 *120:8 0.067904
9 *560:A 0.038983
10 *120:10 0.769886
11 *120:11 0.757272
12 *120:12 0.151468
13 *120:13 0.141899
14 *120:14 0.018953
15 *120:15 0.340487
16 *120:16 0.340487
17 *120:17 0.066421
18 *120:18 0.057423
19 *409:AN 0.009569
20 *120:20 0.188306
21 *120:21 0.188306
22 *120:22 0.116685
23 *120:23 0.097338
24 *120:24 0.012614
25 *120:25 0.285930
26 *120:26 0.285930
27 *120:27 0.558206
28 *120:28 0.558206
29 *120:29 0.025200
30 *120:30 0.025200

*RES
1 *120:2 *120:1 1.279600
2 *430:Q *120:4 0.007312
3 *120:5 *414:B 0.182800
4 *120:8 *120:7 0.731200
5 *560:A *120:8 0.365600
6 *120:10 *120:11 9.322800
7 *120:12 *120:13 1.828000
8 *120:7 *120:14 0.182800
9 *120:16 *120:15 3.290400
10 *120:18 *120:17 0.548400
11 *409:AN *120:12 0.182800
12 *120:21 *120:20 1.645200
13 *120:5 *120:22 1.828000
14 *120:23 *430:Q 1.455088
15 *120:10 *120:24 0.182800
16 *120:26 *120:25 3.473200
17 *120:17 *120:2 0.182800
18 *120:27 *120:28 5.849600
19 *120:29 *120:30 0.182800
20 *120:15 *120:30 2.000000
21 *120:26 *120:23 2.000000
22 *120:27 *120:13 2.000000
23 *120:20 *120:4 2.000000
24 *120:28 *120:22 2.000000
25 *120:25 *409:AN 2.000000
26 *120:11 *120:1 2.000000
27 *120:18 *120:14 2.000000
28 *120:29 *120:21 2.000000
29 *120:16 *120:24 2.000000
*END

*D_NET *121 5.589107

*CONN
*I *410:B0 I *C 24.700 9.100
*I *424:B0 I *C 5.300 10.495
*I *409:Z O *C 23.900 8.900
*I *415:A I *C 30.700 9.100
*N *121:1 *C 23.300 13.300
*N *121:2 *C 23.300 10.100
*N *121:3 *C 24.700 10.100
*N *121:4 *C 24.700 9.900
*N *121:5 *C 24.700 9.500
*N *121:6 *C 23.900 9.500
*N *121:7 *C 30.500 9.900
*N *121:8 *C 30.500 9.100
*N *121:9 *C 30.500 9.100
*N *121:10 *C 30.700 9.100
*N *121:11 *C 23.300 10.100
*N *121:12 *C 24.700 9.500
*N *121:15 *C 5.300 13.300
*N *121:16 *C 5.300 13.300
*N *121:17 *C 23.300 13.300
*N *121:18 *C 23.900 9.500
*N *121:20 *C 30.500 9.900
*N *121:21 *C 24.700 9.900
*N *121:22 *C 24.700 9.500
*N *121:24 *C 5.300 13.300
*N *121:25 *C 5.300 13.300

*CAP
1 *121:1 0.310804
2 *121:2 0.310804
3 *121:3 0.111183
4 *121:4 0.412709
5 *121:5 0.080142
6 *121:6 0.080142
7 *121:7 0.075601
8 *121:8 0.075601
9 *121:9 0.026985
10 *121:10 0.026985
11 *121:11 0.099669
12 *121:12 0.033279
13 *410:B0 0.033279
14 *424:B0 0.200404
15 *121:15 0.200404
16 *121:16 1.455568
17 *121:17 1.455568
18 *121:18 0.048439
19 *409:Z 0.048439
20 *121:20 0.401195
21 *121:21 0.050953
22 *121:22 0.050953

*RES
1 *121:2 *121:1 2.924800
2 *121:4 *121:3 0.182800
3 *121:6 *121:5 0.731200
4 *121:8 *121:7 0.731200
5 *121:9 *121:10 0.182800
6 *121:11 *121:3 1.279600
7 *410:B0 *121:12 0.365600
8 *424:B0 *121:15 2.563770
9 *121:16 *121:17 16.452000
10 *409:Z *121:18 0.548400
11 *121:4 *121:20 5.301200
12 *121:22 *121:21 0.365600
13 *121:10 *415:A 2.000000
14 *121:11 *121:2 2.000000
15 *121:8 *121:9 2.000000
16 *121:6 *121:18 2.000000
17 *121:16 *121:24 2.000000
18 *121:22 *121:5 2.000000
19 *121:4 *121:21 2.000000
20 *121:20 *121:7 2.000000
21 *121:25 *121:15 2.000000
22 *121:5 *121:12 2.000000
23 *121:17 *121:1 2.000000
24 *121:24 *121:25 2.000000
*END

*D_NET *122 5.269811

*CONN
*I *410:A1 I *C 24.500 9.300
*I *411:Y O *C 26.900 9.300
*I *424:A1 I *C 4.100 10.492
*N *122:1 *C 24.500 10.300
*N *122:3 *C 17.100 14.100
*N *122:4 *C 17.100 14.700
*N *122:5 *C 26.900 8.700
*N *122:7 *C 24.500 8.700
*N *122:8 *C 24.500 8.700
*N *122:9 *C 26.900 8.700
*N *122:10 *C 20.500 10.300
*N *122:11 *C 24.500 10.300
*N *122:12 *C 4.100 14.100
*N *122:13 *C 17.100 14.100
*N *122:14 *C 20.500 14.700
*N *122:15 *C 20.500 10.300
*N *122:17 *C 4.100 14.100
*N *122:18 *C 17.100 14.700
*N *122:19 *C 20.500 14.700

*CAP
1 *122:1 0.072305
2 *410:A1 0.128223
3 *122:3 0.030235
4 *122:4 0.030235
5 *122:5 0.032187
6 *411:Y 0.032187
7 *122:7 0.055918
8 *122:8 0.248093
9 *122:9 0.248093
10 *122:10 0.342103
11 *122:11 0.342103
12 *122:12 1.109624
13 *122:13 1.109624
14 *122:14 0.347942
15 *122:15 0.347942
16 *424:A1 0.153475
17 *122:17 0.153475
18 *122:18 0.243025
19 *122:19 0.243025

*RES
1 *410:A1 *122:1 0.914000
2 *122:3 *122:4 0.548400
3 *122:5 *411:Y 0.548400
4 *122:7 *410:A1 0.548400
5 *122:8 *122:9 2.193600
6 *122:10 *122:11 3.656000
7 *122:12 *122:13 11.882000
8 *122:15 *122:14 4.021600
9 *424:A1 *122:17 3.297712
10 *122:18 *122:19 3.107600
11 *122:15 *122:10 2.000000
12 *122:18 *122:4 2.000000
13 *122:13 *122:3 2.000000
14 *122:8 *122:7 2.000000
15 *122:9 *122:5 2.000000
16 *122:14 *122:19 2.000000
17 *122:12 *122:17 2.000000
18 *122:11 *122:1 2.000000
*END

*D_NET *123 0.966594

*CONN
*I *412:A1 I *C 27.500 9.500
*I *413:A1N I *C 28.300 9.100
*I *435:B I *C 30.900 10.692
*I *410:Y O *C 25.300 9.500
*N *123:1 *C 30.500 9.300
*N *123:2 *C 29.300 9.300
*N *123:3 *C 30.500 10.692
*N *123:4 *C 30.500 9.300
*N *123:5 *C 29.300 9.500
*N *123:6 *C 27.500 9.500
*N *123:7 *C 25.300 9.500
*N *123:9 *C 27.500 9.485
*N *123:10 *C 28.300 9.500
*N *123:13 *C 28.300 9.500

*CAP
1 *123:1 0.094132
2 *123:2 0.105096
3 *123:3 0.079988
4 *123:4 0.063633
5 *123:5 0.099774
6 *123:6 0.183465
7 *123:7 0.122593
8 *412:A1 0.007568
9 *123:9 0.007568
10 *123:10 0.018369
11 *413:A1N 0.018369
12 *435:B 0.016355
13 *123:13 0.149683

*RES
1 *123:2 *123:1 1.096800
2 *123:4 *123:3 1.272288
3 *123:2 *123:5 0.182800
4 *123:7 *123:6 2.010800
5 *123:9 *412:A1 0.013710
6 *413:A1N *123:10 0.365600
7 *123:3 *435:B 0.365600
8 *123:6 *123:13 0.731200
9 *123:13 *123:5 0.914000
10 *123:1 *123:4 2.000000
11 *123:6 *412:A1 2.000000
12 *123:7 *410:Y 2.000000
13 *123:13 *123:10 2.000000
*END

*D_NET *124 0.345963

*CONN
*I *413:Y O *C 28.900 9.500
*I *412:B0 I *C 27.700 9.290
*N *124:1 *C 28.700 9.700
*N *124:2 *C 28.900 9.700
*N *124:3 *C 28.300 10.900
*N *124:4 *C 28.300 9.900
*N *124:6 *C 27.700 10.900
*N *124:7 *C 28.700 9.900

*CAP
1 *124:1 0.021802
2 *124:2 0.031467
3 *124:3 0.054838
4 *124:4 0.049341
5 *413:Y 0.020134
6 *124:6 0.081704
7 *124:7 0.025812
8 *412:B0 0.060864

*RES
1 *124:1 *124:2 0.182800
2 *124:4 *124:3 0.914000
3 *413:Y *124:2 0.182800
4 *124:6 *124:3 0.548400
5 *124:4 *124:7 0.365600
6 *412:B0 *124:6 1.471540
7 *124:1 *124:7 0.182800
*END

*D_NET *125 1.067189

*CONN
*I *437:B I *C 33.700 10.500
*I *412:Y O *C 27.900 8.900
*N *125:1 *C 33.500 10.500
*N *125:3 *C 33.500 8.900
*N *125:5 *C 27.900 8.700
*N *125:6 *C 33.700 10.692
*N *125:7 *C 32.500 8.900
*N *125:8 *C 33.500 8.900
*N *125:9 *C 32.500 8.700
*N *125:10 *C 27.900 8.700

*CAP
1 *125:1 0.089602
2 *437:B 0.020478
3 *125:3 0.080033
4 *412:Y 0.009992
5 *125:5 0.009992
6 *125:6 0.010909
7 *125:7 0.069291
8 *125:8 0.060221
9 *125:9 0.362872
10 *125:10 0.353801

*RES
1 *125:1 *437:B 0.182800
2 *125:3 *125:1 1.462400
3 *125:5 *412:Y 0.182800
4 *437:B *125:6 0.175488
5 *125:7 *125:8 0.914000
6 *125:9 *125:7 0.182800
7 *125:10 *125:9 4.204400
8 *125:10 *125:5 2.000000
9 *125:8 *125:3 2.000000
*END

*D_NET *126 0.906023

*CONN
*I *414:Z O *C 30.300 8.665
*I *415:B I *C 30.900 8.665
*I *419:A I *C 35.700 9.100
*N *126:3 *C 30.300 8.900
*N *126:4 *C 35.700 9.700
*N *126:6 *C 30.900 8.900
*N *126:7 *C 30.900 9.700
*N *126:8 *C 30.900 9.700
*N *126:9 *C 35.700 9.700

*CAP
1 *414:Z 0.031349
2 *415:B 0.031867
3 *126:3 0.009021
4 *126:4 0.047107
5 *419:A 0.047107
6 *126:6 0.045619
7 *126:7 0.036079
8 *126:8 0.328937
9 *126:9 0.328937

*RES
1 *414:Z *415:B 0.548400
2 *414:Z *126:3 0.214790
3 *419:A *126:4 0.548400
4 *126:6 *126:7 0.731200
5 *126:8 *126:9 4.387200
6 *415:B *126:6 0.214790
7 *126:9 *126:4 2.000000
8 *126:8 *126:7 2.000000
*END

*D_NET *127 0.123868

*CONN
*I *416:B I *C 31.500 8.900
*I *415:Y O *C 31.100 9.300
*N *127:2 *C 31.500 9.300
*N *127:3 *C 31.500 9.300
*N *127:4 *C 31.100 9.300

*CAP
1 *416:B 0.034679
2 *127:2 0.034679
3 *127:3 0.027255
4 *127:4 0.027255

*RES
1 *416:B *127:2 0.365600
2 *127:4 *127:3 0.365600
3 *127:3 *127:2 2.000000
4 *127:4 *415:Y 2.000000
*END

*D_NET *128 0.290638

*CONN
*I *416:A I *C 32.700 9.285
*I *417:Y O *C 34.100 9.490
*N *128:1 *C 33.800 9.500
*N *128:2 *C 33.800 9.490
*N *128:3 *C 32.700 9.500
*N *128:5 *C 32.700 9.500
*N *128:6 *C 34.100 9.490
*N *128:8 *C 34.100 9.500

*CAP
1 *128:1 0.092476
2 *128:2 0.029910
3 *128:3 0.089177
4 *416:A 0.021285
5 *128:5 0.021285
6 *128:6 0.026611
7 *417:Y 0.004948
8 *128:8 0.004948

*RES
1 *128:2 *128:1 0.009140
2 *128:3 *128:1 1.005400
3 *416:A *128:5 0.196510
4 *128:2 *128:6 0.274200
5 *417:Y *128:8 0.009140
6 *128:6 *417:Y 2.000000
7 *128:3 *128:5 2.000000
*END

*D_NET *129 0.275316

*CONN
*I *417:B0 I *C 33.900 9.100
*I *418:Y O *C 35.300 8.900
*N *129:1 *C 33.900 8.900
*N *129:2 *C 35.300 8.900
*N *129:4 *C 33.900 8.900

*CAP
1 *129:1 0.121726
2 *129:2 0.121726
3 *417:B0 0.015932
4 *129:4 0.015932

*RES
1 *129:1 *129:2 1.279600
2 *129:4 *417:B0 0.182800
3 *129:1 *129:4 2.000000
4 *129:2 *418:Y 2.000000
*END

*D_NET *130 6.481834

*CONN
*I *420:AN I *C 36.700 9.500
*I *419:B I *C 36.100 9.100
*I *423:Z O *C 3.700 10.692
*N *130:1 *C 35.900 9.100
*N *130:2 *C 35.900 9.500
*N *130:3 *C 36.100 12.900
*N *130:4 *C 8.500 12.900
*N *130:5 *C 8.500 12.900
*N *130:6 *C 8.500 12.100
*N *130:8 *C 36.700 9.490
*N *130:9 *C 35.900 10.275
*N *130:10 *C 35.900 9.500
*N *130:11 *C 36.700 9.500
*N *130:12 *C 36.100 10.275
*N *130:13 *C 36.100 12.500
*N *130:15 *C 36.100 12.500
*N *130:16 *C 36.100 12.900
*N *130:17 *C 8.500 12.100
*N *130:18 *C 3.700 12.100
*N *130:19 *C 3.700 12.100
*N *130:21 *C 36.100 12.500

*CAP
1 *130:1 0.043143
2 *130:2 0.077285
3 *130:3 2.497416
4 *130:4 2.497416
5 *130:5 0.089965
6 *130:6 0.089965
7 *420:AN 0.002975
8 *130:8 0.002975
9 *130:9 0.047445
10 *130:10 0.045647
11 *130:11 0.045647
12 *130:12 0.101719
13 *130:13 0.096813
14 *419:B 0.008399
15 *130:15 0.050953
16 *130:16 0.050953
17 *130:17 0.290178
18 *130:18 0.290178
19 *130:19 0.076381
20 *423:Z 0.076381

*RES
1 *130:1 *130:2 0.365600
2 *130:4 *130:3 25.226400
3 *130:6 *130:5 0.731200
4 *130:8 *420:AN 0.009140
5 *130:2 *130:9 0.708350
6 *130:10 *130:11 0.731200
7 *130:12 *130:13 2.033650
8 *130:9 *130:12 0.182800
9 *130:1 *419:B 0.182800
10 *130:15 *130:16 0.365600
11 *130:18 *130:17 4.387200
12 *423:Z *130:19 1.286912
13 *130:4 *130:5 2.000000
14 *130:18 *130:19 2.000000
15 *130:10 *130:2 2.000000
16 *130:6 *130:17 2.000000
17 *130:21 *130:13 2.000000
18 *130:11 *420:AN 2.000000
19 *130:15 *130:21 2.000000
20 *130:3 *130:16 2.000000
*END

*D_NET *131 1.960978

*CONN
*I *420:B I *C 37.100 9.300
*I *411:C0 I *C 26.700 9.100
*I *421:Y O *C 38.300 8.900
*N *131:1 *C 36.100 9.700
*N *131:2 *C 33.800 9.700
*N *131:3 *C 36.100 8.900
*N *131:4 *C 36.100 9.700
*N *131:5 *C 27.700 9.100
*N *131:6 *C 26.700 9.100
*N *131:7 *C 27.700 9.300
*N *131:9 *C 37.100 8.900
*N *131:10 *C 37.100 8.900
*N *131:11 *C 36.100 8.900
*N *131:12 *C 38.300 8.900
*N *131:13 *C 33.800 9.500
*N *131:14 *C 27.700 9.500
*N *131:15 *C 27.700 9.500
*N *131:16 *C 27.700 9.300

*CAP
1 *131:1 0.157995
2 *131:2 0.171096
3 *131:3 0.069583
4 *131:4 0.069583
5 *131:5 0.094539
6 *131:6 0.085066
7 *131:7 0.009473
8 *420:B 0.024034
9 *131:9 0.024034
10 *131:10 0.175266
11 *131:11 0.081765
12 *131:12 0.093501
13 *131:13 0.436073
14 *131:14 0.422971
15 *131:15 0.023000
16 *131:16 0.023000

*RES
1 *131:2 *131:1 2.102200
2 *131:3 *131:4 0.731200
3 *131:6 *131:5 0.914000
4 *131:5 *131:7 0.182800
5 *131:9 *420:B 0.365600
6 *131:11 *131:10 0.914000
7 *131:10 *131:12 1.096800
8 *131:14 *131:13 5.575400
9 *131:13 *131:2 0.182800
10 *131:16 *131:15 0.182800
11 *131:10 *131:9 2.000000
12 *131:16 *131:7 2.000000
13 *131:6 *411:C0 2.000000
14 *131:12 *421:Y 2.000000
15 *131:3 *131:11 2.000000
16 *131:14 *131:15 2.000000
17 *131:1 *131:4 2.000000
*END

*D_NET *132 0.320586

*CONN
*I *420:Y O *C 37.300 8.900
*I *422:B I *C 38.700 8.900
*N *132:2 *C 37.300 8.500
*N *132:3 *C 37.300 8.500
*N *132:4 *C 38.700 8.500
*N *132:5 *C 38.700 8.500

*CAP
1 *420:Y 0.036531
2 *132:2 0.036531
3 *132:3 0.101982
4 *132:4 0.101982
5 *132:5 0.021780
6 *422:B 0.021780

*RES
1 *132:2 *420:Y 0.365600
2 *132:3 *132:4 1.279600
3 *132:5 *422:B 0.365600
4 *132:3 *132:2 2.000000
5 *132:4 *132:5 2.000000
*END

*D_NET *133 6.637435

*CONN
*I *424:A0 I *C 4.700 10.492
*I *419:Y O *C 36.300 9.300
*I *410:A0 I *C 24.100 9.300
*N *133:2 *C 4.700 8.700
*N *133:3 *C 36.300 8.500
*N *133:5 *C 21.900 7.300
*N *133:6 *C 35.900 7.300
*N *133:7 *C 35.900 7.500
*N *133:8 *C 35.900 8.500
*N *133:9 *C 7.900 8.700
*N *133:10 *C 7.900 7.300
*N *133:11 *C 4.700 8.700
*N *133:12 *C 7.900 8.700
*N *133:14 *C 24.100 9.285
*N *133:15 *C 21.900 7.300
*N *133:16 *C 21.900 9.300
*N *133:17 *C 7.900 7.300
*N *133:18 *C 21.900 9.300
*N *133:19 *C 24.100 9.300
*N *133:20 *C 35.900 7.300
*N *133:21 *C 35.900 7.500
*N *133:22 *C 35.900 7.500

*CAP
1 *424:A0 0.080415
2 *133:2 0.080415
3 *133:3 0.050982
4 *419:Y 0.032711
5 *133:5 2.438075
6 *133:6 1.232939
7 *133:7 0.055044
8 *133:8 0.073315
9 *133:9 0.094714
10 *133:10 0.094714
11 *133:11 0.227551
12 *133:12 0.227551
13 *410:A0 0.011394
14 *133:14 0.011394
15 *133:15 0.166051
16 *133:16 0.166051
17 *133:17 1.205136
18 *133:18 0.172165
19 *133:19 0.172165
20 *133:20 0.022327
21 *133:21 0.022327

*RES
1 *133:2 *424:A0 1.637888
2 *133:3 *419:Y 0.731200
3 *133:5 *133:6 12.796000
4 *133:7 *133:8 0.914000
5 *133:10 *133:9 1.279600
6 *133:11 *133:12 2.924800
7 *133:14 *410:A0 0.013710
8 *133:15 *133:16 1.828000
9 *133:17 *133:5 12.796000
10 *133:18 *133:19 2.010800
11 *133:8 *133:3 0.365600
12 *133:20 *133:21 0.182800
13 *133:9 *133:12 2.000000
14 *133:22 *133:7 2.000000
15 *133:6 *133:20 2.000000
16 *133:21 *133:22 2.000000
17 *133:11 *133:2 2.000000
18 *133:16 *133:18 2.000000
19 *133:17 *133:10 2.000000
20 *133:19 *410:A0 2.000000
21 *133:5 *133:15 2.000000
*END

*D_NET *134 0.510714

*CONN
*I *425:A I *C 7.100 10.492
*I *426:B0 I *C 8.700 10.700
*I *424:Y O *C 6.300 10.500
*N *134:1 *C 7.700 10.500
*N *134:2 *C 7.700 10.700
*N *134:3 *C 6.900 10.500
*N *134:4 *C 6.300 10.500
*N *134:6 *C 6.900 10.492
*N *134:7 *C 6.900 10.500
*N *134:9 *C 8.700 10.495
*N *134:11 *C 6.300 10.492
*N *134:12 *C 8.700 10.700

*CAP
1 *134:1 0.073127
2 *134:2 0.096705
3 *134:3 0.124297
4 *134:4 0.060167
5 *425:A 0.009569
6 *134:6 0.012587
7 *134:7 0.003018
8 *426:B0 0.015348
9 *134:9 0.015348
10 *424:Y 0.006420
11 *134:11 0.006420
12 *134:12 0.087707

*RES
1 *134:1 *134:2 0.182800
2 *134:4 *134:3 0.548400
3 *134:6 *425:A 0.182800
4 *134:6 *134:7 0.007312
5 *134:9 *426:B0 0.187370
6 *134:11 *424:Y 0.007312
7 *134:3 *134:1 0.731200
8 *134:2 *134:12 0.914000
9 *134:12 *426:B0 2.000000
10 *134:3 *134:7 2.000000
11 *134:4 *424:Y 2.000000
*END

*D_NET *135 0.504566

*CONN
*I *426:A0 I *C 8.300 10.492
*I *427:Z O *C 11.100 10.692
*N *135:1 *C 9.900 11.100
*N *135:2 *C 11.100 11.100
*N *135:4 *C 8.300 11.100
*N *135:5 *C 8.300 11.100
*N *135:6 *C 9.900 11.100

*CAP
1 *135:1 0.044431
2 *135:2 0.065314
3 *426:A0 0.027794
4 *135:4 0.027794
5 *135:5 0.159175
6 *135:6 0.159175
7 *427:Z 0.020883

*RES
1 *135:1 *135:2 1.096800
2 *426:A0 *135:4 0.555712
3 *135:5 *135:6 1.462400
4 *427:Z *135:2 0.372912
5 *135:6 *135:1 2.000000
6 *135:5 *135:4 2.000000
*END

*D_NET *136 0.200326

*CONN
*I *427:B I *C 10.900 10.492
*I *428:Y O *C 12.100 10.700
*N *136:1 *C 11.700 10.700
*N *136:2 *C 12.100 10.700
*N *136:3 *C 11.700 10.500
*N *136:5 *C 10.900 10.500
*N *136:7 *C 12.100 10.692
*N *136:8 *C 10.900 10.500

*CAP
1 *136:1 0.033297
2 *136:2 0.024078
3 *136:3 0.064731
4 *427:B 0.003863
5 *136:5 0.003863
6 *428:Y 0.007491
7 *136:7 0.007491
8 *136:8 0.055513

*RES
1 *136:1 *136:2 0.365600
2 *136:3 *136:1 0.182800
3 *427:B *136:5 0.007312
4 *136:7 *428:Y 0.007312
5 *136:8 *136:3 0.731200
6 *136:2 *428:Y 2.000000
7 *136:8 *136:5 2.000000
*END

*D_NET *137 1.306446

*CONN
*I *429:Y O *C 14.700 10.292
*I *426:A1 I *C 7.700 10.315
*N *137:1 *C 7.700 10.900
*N *137:2 *C 9.500 10.900
*N *137:3 *C 14.700 10.900
*N *137:5 *C 13.700 10.900
*N *137:6 *C 14.700 10.900
*N *137:8 *C 7.700 10.900
*N *137:9 *C 9.500 10.900
*N *137:10 *C 13.700 10.900
*N *137:11 *C 13.700 10.900
*N *137:12 *C 9.500 10.900

*CAP
1 *137:1 0.167545
2 *137:2 0.167545
3 *137:3 0.052830
4 *429:Y 0.052830
5 *137:5 0.090866
6 *137:6 0.090866
7 *426:A1 0.024398
8 *137:8 0.024398
9 *137:9 0.317584
10 *137:10 0.317584

*RES
1 *137:1 *137:2 1.645200
2 *429:Y *137:3 0.555712
3 *137:5 *137:6 0.914000
4 *426:A1 *137:8 0.534690
5 *137:9 *137:10 3.838800
6 *137:10 *137:11 2.000000
7 *137:11 *137:5 2.000000
8 *137:9 *137:12 2.000000
9 *137:12 *137:2 2.000000
10 *137:6 *137:3 2.000000
11 *137:1 *137:8 2.000000
*END

*D_NET *138 0.575005

*CONN
*I *446:Y O *C 11.700 12.100
*I *426:C0 I *C 9.500 10.495
*N *138:1 *C 11.700 11.100
*N *138:3 *C 10.500 10.500
*N *138:4 *C 10.500 11.100
*N *138:6 *C 9.500 10.500
*N *138:7 *C 9.500 10.500
*N *138:8 *C 11.700 11.100

*CAP
1 *138:1 0.072226
2 *446:Y 0.072226
3 *138:3 0.110435
4 *138:4 0.124048
5 *426:C0 0.006876
6 *138:6 0.006876
7 *138:7 0.084353
8 *138:8 0.097966

*RES
1 *138:1 *446:Y 0.914000
2 *138:3 *138:4 0.548400
3 *426:C0 *138:6 0.004570
4 *138:7 *138:3 0.914000
5 *138:4 *138:8 1.096800
6 *138:8 *138:1 2.000000
7 *138:7 *138:6 2.000000
*END

*D_NET *139 6.169685

*CONN
*I *561:A I *C 13.100 20.300
*I *412:A0 I *C 27.100 8.900
*I *431:Q O *C 23.900 10.692
*I *439:B I *C 38.100 10.100
*I *434:B I *C 28.500 10.692
*I *413:A0N I *C 28.500 8.900
*N *139:1 *C 31.300 10.300
*N *139:2 *C 31.300 10.100
*N *139:3 *C 28.500 10.300
*N *139:4 *C 28.500 10.692
*N *139:5 *C 24.100 10.692
*N *139:6 *C 24.100 9.700
*N *139:7 *C 13.100 21.500
*N *139:10 *C 27.100 8.925
*N *139:11 *C 24.300 9.700
*N *139:12 *C 24.300 8.900
*N *139:13 *C 27.100 8.900
*N *139:14 *C 28.500 8.900
*N *139:15 *C 23.700 15.300
*N *139:16 *C 23.700 21.500
*N *139:18 *C 23.900 15.300
*N *139:19 *C 37.300 10.100
*N *139:20 *C 37.300 10.100
*N *139:21 *C 38.100 10.100
*N *139:22 *C 24.300 8.900
*N *139:24 *C 38.100 10.292
*N *139:25 *C 23.700 21.500
*N *139:26 *C 13.100 21.500
*N *139:27 *C 28.500 9.100
*N *139:28 *C 28.500 9.100
*N *139:29 *C 28.500 10.300
*N *139:30 *C 28.500 10.692
*N *139:32 *C 37.300 10.100

*CAP
1 *139:1 0.270210
2 *139:2 0.403959
3 *139:3 0.139957
4 *139:4 0.034692
5 *139:5 0.063381
6 *139:6 0.063381
7 *139:7 0.104474
8 *561:A 0.104474
9 *412:A0 0.009234
10 *139:10 0.009234
11 *139:11 0.077544
12 *139:12 0.069460
13 *139:13 0.337840
14 *139:14 0.124048
15 *139:15 0.414379
16 *139:16 0.404809
17 *431:Q 0.350777
18 *139:18 0.352262
19 *139:19 0.394033
20 *139:20 0.083325
21 *139:21 0.083325
22 *139:22 0.223265
23 *439:B 0.019715
24 *139:24 0.019715
25 *139:25 0.818586
26 *139:26 0.818586
27 *139:27 0.009473
28 *139:28 0.105265
29 *139:29 0.260284

*RES
1 *139:2 *139:1 0.182800
2 *139:3 *139:4 0.358288
3 *139:6 *139:5 0.906688
4 *561:A *139:7 1.096800
5 *412:A0 *139:10 0.022850
6 *139:12 *139:11 0.731200
7 *139:13 *139:14 1.279600
8 *139:15 *139:16 5.666800
9 *431:Q *139:5 0.182800
10 *139:15 *139:18 0.182800
11 *139:2 *139:19 5.484000
12 *139:20 *139:21 0.731200
13 *139:22 *139:13 2.559200
14 *439:B *139:24 0.175488
15 *139:26 *139:25 9.688400
16 *431:Q *139:18 4.211712
17 *139:14 *139:27 0.182800
18 *139:28 *139:3 1.096800
19 *139:29 *139:1 2.559200
20 *139:6 *139:11 0.182800
21 *139:25 *139:16 2.000000
22 *139:4 *139:30 2.000000
23 *139:30 *434:B 2.000000
24 *139:26 *139:7 2.000000
25 *139:29 *139:3 2.000000
26 *139:13 *412:A0 2.000000
27 *139:32 *139:20 2.000000
28 *139:19 *139:32 2.000000
29 *139:28 *139:27 2.000000
30 *139:14 *413:A0N 2.000000
31 *139:21 *439:B 2.000000
32 *139:22 *139:12 2.000000
*END

*D_NET *140 9.063388

*CONN
*I *440:B I *C 39.100 10.492
*I *441:Q O *C 7.100 11.700
*I *562:A I *C 15.100 20.300
*I *432:AN I *C 24.300 10.100
*N *140:1 *C 24.300 2.900
*N *140:2 *C 39.100 2.900
*N *140:3 *C 39.100 7.100
*N *140:5 *C 22.600 10.100
*N *140:6 *C 24.300 10.100
*N *140:7 *C 14.300 10.300
*N *140:8 *C 18.100 10.300
*N *140:9 *C 7.300 14.900
*N *140:10 *C 12.100 14.900
*N *140:11 *C 12.100 14.900
*N *140:12 *C 12.100 18.100
*N *140:13 *C 7.100 12.900
*N *140:14 *C 7.300 12.900
*N *140:16 *C 24.300 10.100
*N *140:17 *C 24.300 2.900
*N *140:18 *C 13.700 18.300
*N *140:19 *C 13.700 20.900
*N *140:20 *C 12.100 18.300
*N *140:21 *C 13.700 18.300
*N *140:22 *C 14.300 14.900
*N *140:23 *C 12.100 18.100
*N *140:24 *C 7.300 14.900
*N *140:25 *C 14.300 14.900
*N *140:26 *C 14.300 10.300
*N *140:27 *C 39.100 2.900
*N *140:28 *C 39.100 7.100
*N *140:29 *C 18.100 10.300
*N *140:30 *C 18.100 9.900
*N *140:31 *C 15.100 20.900
*N *140:33 *C 18.100 9.900
*N *140:34 *C 22.600 9.900
*N *140:36 *C 24.300 10.110
*N *140:37 *C 13.700 20.900
*N *140:38 *C 15.100 20.900
*N *140:39 *C 22.600 9.900
*N *140:40 *C 22.600 10.100
*N *140:41 *C 39.100 7.100

*CAP
1 *140:1 0.828114
2 *140:2 0.828114
3 *140:3 0.140695
4 *440:B 0.140695
5 *140:5 0.181565
6 *140:6 0.181565
7 *140:7 0.337873
8 *140:8 0.337873
9 *140:9 0.372144
10 *140:10 0.557082
11 *140:11 0.291527
12 *140:12 0.291527
13 *140:13 0.054612
14 *140:14 0.141365
15 *441:Q 0.044241
16 *140:16 0.611264
17 *140:17 0.611264
18 *140:18 0.239094
19 *140:19 0.239094
20 *140:20 0.149160
21 *140:21 0.135295
22 *140:22 0.184938
23 *140:23 0.013865
24 *140:24 0.130995
25 *140:25 0.275682
26 *140:26 0.275682
27 *140:27 0.189020
28 *140:28 0.189020
29 *140:29 0.050953
30 *140:30 0.050953
31 *140:31 0.041241
32 *562:A 0.041241
33 *140:33 0.287902
34 *140:34 0.287902
35 *432:AN 0.010899
36 *140:36 0.010899
37 *140:37 0.134782
38 *140:38 0.134782
39 *140:39 0.019235
40 *140:40 0.019235

*RES
1 *140:1 *140:2 13.527200
2 *140:3 *440:B 3.100288
3 *140:5 *140:6 1.553800
4 *140:7 *140:8 3.473200
5 *140:9 *140:10 4.387200
6 *140:11 *140:12 2.924800
7 *140:13 *140:14 0.182800
8 *441:Q *140:13 1.096800
9 *140:17 *140:16 6.580800
10 *140:18 *140:19 2.376400
11 *140:20 *140:21 1.462400
12 *140:10 *140:22 2.010800
13 *140:23 *140:20 0.182800
14 *140:14 *140:24 1.828000
15 *140:26 *140:25 4.204400
16 *140:27 *140:28 3.838800
17 *140:30 *140:29 0.365600
18 *562:A *140:31 0.548400
19 *140:33 *140:34 4.113000
20 *432:AN *140:36 0.009140
21 *140:37 *140:38 1.279600
22 *140:39 *140:40 0.182800
23 *140:18 *140:21 2.000000
24 *140:9 *140:24 2.000000
25 *140:11 *140:10 2.000000
26 *140:38 *140:31 2.000000
27 *140:7 *140:26 2.000000
28 *140:16 *140:6 2.000000
29 *140:41 *140:3 2.000000
30 *140:29 *140:8 2.000000
31 *140:12 *140:23 2.000000
32 *140:22 *140:25 2.000000
33 *140:1 *140:17 2.000000
34 *140:19 *140:37 2.000000
35 *140:33 *140:30 2.000000
36 *140:34 *140:39 2.000000
37 *140:28 *140:41 2.000000
38 *140:40 *140:5 2.000000
39 *140:6 *432:AN 2.000000
40 *140:2 *140:27 2.000000
*END

*D_NET *141 2.107052

*CONN
*I *438:B0 I *C 36.300 10.492
*I *433:A I *C 25.500 10.695
*I *436:A I *C 33.300 10.500
*I *432:Y O *C 24.900 10.275
*N *141:1 *C 36.500 10.500
*N *141:2 *C 36.500 10.492
*N *141:4 *C 27.900 10.900
*N *141:5 *C 33.100 10.900
*N *141:6 *C 35.500 10.500
*N *141:7 *C 36.500 10.500
*N *141:9 *C 24.900 10.695
*N *141:11 *C 33.300 10.492
*N *141:12 *C 25.500 10.700
*N *141:13 *C 27.900 10.700
*N *141:14 *C 25.500 10.700
*N *141:15 *C 33.300 10.100
*N *141:16 *C 33.300 10.100
*N *141:17 *C 35.500 10.100
*N *141:18 *C 35.500 10.100
*N *141:19 *C 35.500 10.500
*N *141:20 *C 33.100 10.500
*N *141:21 *C 33.300 10.500

*CAP
1 *141:1 0.004555
2 *141:2 0.014124
3 *438:B0 0.009569
4 *141:4 0.387947
5 *141:5 0.391517
6 *141:6 0.103165
7 *141:7 0.103165
8 *433:A 0.024490
9 *141:9 0.053740
10 *436:A 0.008068
11 *141:11 0.043725
12 *141:12 0.206528
13 *141:13 0.220393
14 *141:14 0.002162
15 *141:15 0.035657
16 *141:16 0.168708
17 *141:17 0.168708
18 *141:18 0.032792
19 *141:19 0.032792
20 *141:20 0.040635
21 *141:21 0.023200
22 *432:Y 0.031412

*RES
1 *141:2 *141:1 0.007312
2 *438:B0 *141:2 0.182800
3 *141:4 *141:5 4.752800
4 *141:6 *141:7 0.914000
5 *141:9 *433:A 0.548400
6 *141:11 *436:A 0.007312
7 *141:12 *141:13 2.193600
8 *141:13 *141:4 0.182800
9 *433:A *141:14 0.004570
10 *141:15 *141:11 0.358288
11 *141:16 *141:17 2.010800
12 *141:18 *141:19 0.365600
13 *141:20 *141:21 0.182800
14 *141:20 *141:5 0.365600
15 *432:Y *141:9 0.383880
16 *141:21 *436:A 2.000000
17 *141:16 *141:15 2.000000
18 *141:12 *141:14 2.000000
19 *141:17 *141:18 2.000000
20 *141:7 *141:1 2.000000
21 *141:6 *141:19 2.000000
*END

*D_NET *142 1.144709

*CONN
*I *435:A I *C 32.100 10.500
*I *434:Y O *C 30.100 10.100
*I *433:C I *C 25.900 10.492
*N *142:2 *C 32.100 10.495
*N *142:3 *C 25.900 10.100
*N *142:4 *C 30.100 10.100
*N *142:6 *C 30.100 10.275
*N *142:7 *C 30.100 10.500
*N *142:9 *C 25.900 10.100
*N *142:10 *C 32.100 10.500

*CAP
1 *435:A 0.004316
2 *142:2 0.004316
3 *142:3 0.373875
4 *142:4 0.388870
5 *434:Y 0.020542
6 *142:6 0.020542
7 *142:7 0.154076
8 *433:C 0.019545
9 *142:9 0.019545
10 *142:10 0.139081

*RES
1 *142:2 *435:A 0.004570
2 *142:3 *142:4 3.838800
3 *434:Y *142:6 0.159950
4 *142:4 *142:7 0.365600
5 *142:9 *433:C 0.358288
6 *142:7 *142:10 1.828000
7 *142:10 *435:A 2.000000
8 *142:3 *142:9 2.000000
9 *142:4 *434:Y 2.000000
*END

*D_NET *143 3.878834

*CONN
*I *433:Y O *C 27.900 10.500
*I *424:C0 I *C 5.900 10.315
*N *143:1 *C 17.000 10.700
*N *143:2 *C 25.700 10.700
*N *143:3 *C 9.300 9.900
*N *143:4 *C 9.300 10.500
*N *143:5 *C 17.000 10.500
*N *143:7 *C 27.900 10.295
*N *143:8 *C 5.900 9.900
*N *143:9 *C 9.300 9.900
*N *143:10 *C 9.300 10.500
*N *143:11 *C 25.700 10.500
*N *143:12 *C 27.900 10.500
*N *143:13 *C 25.700 10.700
*N *143:14 *C 25.700 10.500
*N *143:16 *C 5.900 9.900

*CAP
1 *143:1 0.750969
2 *143:2 0.737868
3 *143:3 0.057952
4 *143:4 0.057952
5 *143:5 0.571616
6 *433:Y 0.022783
7 *143:7 0.022783
8 *143:8 0.259983
9 *143:9 0.259983
10 *143:10 0.558514
11 *143:11 0.229579
12 *143:12 0.229579
13 *143:13 0.024837
14 *143:14 0.024837
15 *424:C0 0.034799
16 *143:16 0.034799

*RES
1 *143:1 *143:2 7.951800
2 *143:3 *143:4 0.548400
3 *143:5 *143:1 0.182800
4 *143:7 *433:Y 0.187370
5 *143:8 *143:9 3.107600
6 *143:10 *143:5 7.037800
7 *143:11 *143:12 2.010800
8 *143:14 *143:13 0.182800
9 *143:16 *424:C0 0.379310
10 *143:12 *433:Y 2.000000
11 *143:2 *143:13 2.000000
12 *143:8 *143:16 2.000000
13 *143:3 *143:9 2.000000
14 *143:14 *143:11 2.000000
15 *143:10 *143:4 2.000000
*END

*D_NET *144 0.451366

*CONN
*I *437:A I *C 34.900 10.500
*I *436:Y O *C 32.900 10.692
*N *144:1 *C 33.800 10.500
*N *144:2 *C 34.900 10.500
*N *144:3 *C 33.100 10.300
*N *144:4 *C 33.800 10.300
*N *144:6 *C 34.900 10.495
*N *144:7 *C 32.900 10.300
*N *144:8 *C 33.100 10.300

*CAP
1 *144:1 0.106241
2 *144:2 0.092480
3 *144:3 0.067206
4 *144:4 0.080967
5 *437:A 0.007283
6 *144:6 0.007283
7 *144:7 0.044953
8 *144:8 0.009569
9 *436:Y 0.035383

*RES
1 *144:1 *144:2 1.005400
2 *144:3 *144:4 0.639800
3 *144:6 *437:A 0.004570
4 *144:7 *144:8 0.182800
5 *144:4 *144:1 0.182800
6 *144:7 *436:Y 0.358288
7 *144:3 *144:8 2.000000
8 *144:2 *437:A 2.000000
*END

*D_NET *145 0.563545

*CONN
*I *439:Y O *C 38.300 10.900
*I *438:A1N I *C 35.700 10.310
*N *145:1 *C 35.700 10.900
*N *145:2 *C 38.300 10.900
*N *145:4 *C 38.300 10.692
*N *145:6 *C 35.700 10.900

*CAP
1 *145:1 0.221227
2 *145:2 0.221227
3 *439:Y 0.012991
4 *145:4 0.012991
5 *438:A1N 0.047555
6 *145:6 0.047555

*RES
1 *145:1 *145:2 2.376400
2 *145:4 *439:Y 0.190112
3 *438:A1N *145:6 0.539260
4 *145:2 *439:Y 2.000000
5 *145:1 *145:6 2.000000
*END

*D_NET *146 5.600349

*CONN
*I *427:AN I *C 10.500 10.300
*I *429:C I *C 12.900 10.300
*I *425:B I *C 6.500 10.295
*I *438:Y O *C 36.700 10.700
*N *146:1 *C 36.500 10.700
*N *146:2 *C 36.700 10.700
*N *146:3 *C 12.300 11.100
*N *146:4 *C 33.800 11.100
*N *146:5 *C 10.300 10.300
*N *146:6 *C 12.300 10.300
*N *146:7 *C 12.300 10.300
*N *146:8 *C 12.900 10.300
*N *146:10 *C 10.500 10.310
*N *146:11 *C 6.500 10.300
*N *146:12 *C 10.300 10.300
*N *146:14 *C 12.900 10.292
*N *146:15 *C 12.300 10.300
*N *146:16 *C 12.300 11.100
*N *146:18 *C 6.500 10.300
*N *146:20 *C 36.700 10.695
*N *146:21 *C 36.500 10.900
*N *146:22 *C 36.500 10.700
*N *146:23 *C 33.800 10.900
*N *146:24 *C 36.500 10.900
*N *146:25 *C 10.500 10.300
*N *146:26 *C 10.300 10.300

*CAP
1 *146:1 0.026187
2 *146:2 0.026187
3 *146:3 1.830706
4 *146:4 1.843807
5 *146:5 0.184650
6 *146:6 0.184650
7 *146:7 0.071404
8 *146:8 0.071404
9 *427:AN 0.003662
10 *146:10 0.003662
11 *146:11 0.342284
12 *146:12 0.372414
13 *429:C 0.007298
14 *146:14 0.007298
15 *146:15 0.066702
16 *146:16 0.066702
17 *425:B 0.004528
18 *146:18 0.004528
19 *438:Y 0.003974
20 *146:20 0.003974
21 *146:21 0.024837
22 *146:22 0.024837
23 *146:23 0.203814
24 *146:24 0.190713
25 *146:25 0.030130

*RES
1 *146:1 *146:2 0.182800
2 *146:3 *146:4 19.651000
3 *146:5 *146:6 1.828000
4 *146:7 *146:8 0.548400
5 *427:AN *146:10 0.009140
6 *146:11 *146:12 3.473200
7 *146:14 *429:C 0.007312
8 *146:15 *146:16 0.731200
9 *425:B *146:18 0.004570
10 *146:20 *438:Y 0.004570
11 *146:22 *146:21 0.182800
12 *146:23 *146:24 2.467800
13 *146:12 *146:25 0.182800
14 *146:23 *146:4 0.182800
15 *146:3 *146:16 2.000000
16 *146:26 *146:12 2.000000
17 *146:15 *146:7 2.000000
18 *146:5 *146:26 2.000000
19 *146:8 *429:C 2.000000
20 *146:25 *427:AN 2.000000
21 *146:11 *146:18 2.000000
22 *146:6 *146:15 2.000000
23 *146:24 *146:21 2.000000
24 *146:2 *438:Y 2.000000
25 *146:22 *146:1 2.000000
*END

*D_NET *147 2.884599

*CONN
*I *433:B I *C 25.700 10.292
*I *436:B I *C 32.700 10.115
*I *440:Y O *C 39.300 10.275
*I *438:A0N I *C 35.900 10.700
*N *147:1 *C 32.700 11.300
*N *147:2 *C 33.500 11.300
*N *147:3 *C 35.900 11.100
*N *147:4 *C 39.300 11.100
*N *147:5 *C 33.800 10.900
*N *147:6 *C 33.800 10.700
*N *147:7 *C 29.700 10.300
*N *147:8 *C 29.700 11.300
*N *147:9 *C 25.700 10.300
*N *147:10 *C 29.700 10.300
*N *147:12 *C 25.700 10.300
*N *147:13 *C 32.700 11.300
*N *147:15 *C 33.500 11.300
*N *147:16 *C 33.500 10.900
*N *147:17 *C 39.300 11.100
*N *147:19 *C 35.900 10.700
*N *147:21 *C 35.900 11.100
*N *147:22 *C 29.700 11.300
*N *147:23 *C 33.500 10.900
*N *147:24 *C 35.900 10.695

*CAP
1 *147:1 0.334703
2 *147:2 0.076619
3 *147:3 0.226532
4 *147:4 0.226532
5 *147:5 0.037926
6 *147:6 0.172808
7 *147:7 0.072704
8 *147:8 0.072704
9 *147:9 0.360891
10 *147:10 0.360891
11 *433:B 0.007298
12 *147:12 0.007298
13 *147:13 0.104796
14 *436:B 0.104796
15 *147:15 0.034055
16 *147:16 0.034055
17 *147:17 0.041473
18 *440:Y 0.041473
19 *147:19 0.161981
20 *438:A0N 0.059942
21 *147:21 0.049539
22 *147:22 0.258084
23 *147:23 0.027099
24 *147:24 0.010403

*RES
1 *147:1 *147:2 0.731200
2 *147:3 *147:4 3.107600
3 *147:6 *147:5 0.182800
4 *147:7 *147:8 0.914000
5 *147:9 *147:10 3.656000
6 *433:B *147:12 0.007312
7 *436:B *147:13 1.083090
8 *147:16 *147:15 0.365600
9 *440:Y *147:17 0.754050
10 *147:6 *147:19 1.919400
11 *438:A0N *147:21 0.365600
12 *147:22 *147:1 2.742000
13 *147:23 *147:5 0.274200
14 *147:24 *438:A0N 0.004570
15 *147:2 *147:15 2.000000
16 *147:3 *147:21 2.000000
17 *147:8 *147:22 2.000000
18 *147:23 *147:16 2.000000
19 *147:4 *147:17 2.000000
20 *147:1 *147:13 2.000000
21 *147:19 *438:A0N 2.000000
22 *147:9 *147:12 2.000000
23 *147:7 *147:10 2.000000
*END

*D_NET *148 5.139263

*CONN
*I *442:B I *C 7.900 12.290
*I *443:AN I *C 8.500 12.290
*I *563:A I *C 17.100 20.300
*I *452:Q O *C 25.100 11.700
*N *148:3 *C 19.900 12.700
*N *148:4 *C 19.900 16.700
*N *148:5 *C 19.700 18.300
*N *148:6 *C 19.300 18.300
*N *148:7 *C 19.900 12.700
*N *148:8 *C 22.600 12.700
*N *148:9 *C 18.300 13.900
*N *148:10 *C 18.300 12.700
*N *148:11 *C 18.100 20.300
*N *148:12 *C 17.100 20.300
*N *148:13 *C 8.500 13.900
*N *148:14 *C 8.500 13.900
*N *148:15 *C 18.300 13.900
*N *148:16 *C 19.300 18.300
*N *148:17 *C 18.100 18.300
*N *148:18 *C 18.100 18.300
*N *148:19 *C 18.100 20.300
*N *148:20 *C 22.600 12.700
*N *148:21 *C 22.600 11.700
*N *148:22 *C 19.700 16.700
*N *148:23 *C 18.300 12.700
*N *148:24 *C 7.900 12.100
*N *148:25 *C 8.500 12.100
*N *148:26 *C 19.900 16.700
*N *148:27 *C 19.700 16.700
*N *148:28 *C 22.600 11.700
*N *148:29 *C 25.100 11.700

*CAP
1 *442:B 0.031144
2 *443:AN 0.092740
3 *148:3 0.386756
4 *148:4 0.386756
5 *148:5 0.094220
6 *148:6 0.015949
7 *148:7 0.359665
8 *148:8 0.212846
9 *148:9 0.046165
10 *148:10 0.046165
11 *148:11 0.085066
12 *148:12 0.085066
13 *148:13 0.060241
14 *148:14 0.920870
15 *148:15 0.920870
16 *148:16 0.110468
17 *148:17 0.110468
18 *148:18 0.115415
19 *148:19 0.115415
20 *148:20 0.070538
21 *148:21 0.070538
22 *148:22 0.078272
23 *148:23 0.146819
24 *148:24 0.008816
25 *148:25 0.010170
26 *148:26 0.019361
27 *148:27 0.019361
28 *148:28 0.259552
29 *148:29 0.259552

*RES
1 *442:B *443:AN 0.548400
2 *148:3 *148:4 3.656000
3 *148:6 *148:5 0.365600
4 *148:7 *148:8 2.467800
5 *148:10 *148:9 1.096800
6 *148:12 *148:11 0.914000
7 *443:AN *148:13 1.471540
8 *148:14 *148:15 8.957200
9 *148:17 *148:16 1.096800
10 *148:18 *148:19 1.828000
11 *148:21 *148:20 0.914000
12 *148:22 *148:5 1.462400
13 *148:23 *148:7 1.462400
14 *148:24 *442:B 0.173660
15 *148:25 *443:AN 0.173660
16 *148:27 *148:26 0.182800
17 *148:28 *148:29 2.285000
18 *148:16 *148:6 2.000000
19 *148:19 *148:11 2.000000
20 *148:3 *148:7 2.000000
21 *148:21 *148:28 2.000000
22 *148:14 *148:13 2.000000
23 *148:15 *148:9 2.000000
24 *148:20 *148:8 2.000000
25 *148:23 *148:10 2.000000
26 *148:4 *148:26 2.000000
27 *148:12 *563:A 2.000000
28 *148:29 *452:Q 2.000000
29 *148:27 *148:22 2.000000
30 *148:18 *148:17 2.000000
*END

*D_NET *149 1.595049

*CONN
*I *429:B I *C 12.700 10.065
*I *447:A I *C 13.100 11.900
*I *428:B I *C 11.900 10.065
*I *442:Y O *C 8.100 11.700
*I *449:A1N I *C 15.500 11.900
*N *149:2 *C 12.700 11.100
*N *149:3 *C 13.100 11.500
*N *149:5 *C 13.100 11.100
*N *149:6 *C 8.900 11.500
*N *149:7 *C 8.900 11.700
*N *149:9 *C 13.100 11.500
*N *149:10 *C 11.900 10.292
*N *149:11 *C 13.100 11.900
*N *149:12 *C 15.500 11.900
*N *149:13 *C 8.100 11.700

*CAP
1 *429:B 0.072136
2 *149:2 0.058942
3 *149:3 0.035519
4 *447:A 0.018032
5 *149:5 0.031933
6 *149:6 0.395677
7 *149:7 0.053789
8 *428:B 0.038251
9 *149:9 0.386680
10 *149:10 0.010611
11 *149:11 0.224344
12 *149:12 0.224344
13 *149:13 0.044791

*RES
1 *429:B *149:2 0.945990
2 *149:3 *447:A 0.365600
3 *149:5 *149:3 0.365600
4 *149:6 *149:7 0.182800
5 *149:2 *149:5 0.365600
6 *428:B *429:B 0.731200
7 *149:6 *149:9 3.838800
8 *428:B *149:10 0.207478
9 *149:11 *149:12 2.193600
10 *149:13 *149:7 0.731200
11 *149:11 *447:A 2.000000
12 *149:9 *149:3 2.000000
13 *149:13 *442:Y 2.000000
14 *149:12 *449:A1N 2.000000
*END

*D_NET *150 1.547118

*CONN
*I *449:B0 I *C 16.500 12.100
*I *444:B0 I *C 9.900 11.900
*I *443:Y O *C 9.100 12.300
*I *447:B I *C 12.500 12.100
*N *150:1 *C 9.500 11.900
*N *150:2 *C 12.500 11.900
*N *150:4 *C 16.500 11.900
*N *150:5 *C 12.500 12.100
*N *150:6 *C 9.900 12.700
*N *150:8 *C 9.500 12.700
*N *150:9 *C 16.500 12.100
*N *150:11 *C 9.100 12.700
*N *150:12 *C 9.500 11.900

*CAP
1 *150:1 0.212947
2 *150:2 0.221944
3 *449:B0 0.029723
4 *150:4 0.029723
5 *150:5 0.380295
6 *150:6 0.075793
7 *444:B0 0.059603
8 *150:8 0.071819
9 *150:9 0.371298
10 *443:Y 0.019172
11 *150:11 0.035201
12 *150:12 0.039600

*RES
1 *150:1 *150:2 2.742000
2 *150:4 *449:B0 0.182800
3 *150:2 *150:5 0.182800
4 *444:B0 *150:6 0.731200
5 *150:8 *150:6 0.365600
6 *150:5 *150:9 3.656000
7 *443:Y *150:11 0.365600
8 *150:12 *150:8 0.731200
9 *150:11 *150:8 0.365600
10 *150:5 *447:B 2.000000
11 *150:9 *449:B0 2.000000
12 *150:1 *150:12 2.000000
*END

*D_NET *151 0.383403

*CONN
*I *446:A0 I *C 10.900 11.700
*I *445:Y O *C 10.700 11.700
*I *444:A0 I *C 9.300 11.700
*N *151:2 *C 10.900 11.900
*N *151:3 *C 10.700 11.700
*N *151:4 *C 9.300 11.700
*N *151:7 *C 9.300 11.900

*CAP
1 *446:A0 0.022890
2 *151:2 0.010998
3 *151:3 0.151278
4 *151:4 0.151278
5 *445:Y 0.011892
6 *444:A0 0.017534
7 *151:7 0.017534

*RES
1 *446:A0 *151:2 0.182800
2 *151:4 *151:3 1.279600
3 *445:Y *446:A0 0.182800
4 *444:A0 *151:7 0.182800
5 *151:4 *444:A0 2.000000
6 *151:3 *445:Y 2.000000
*END

*D_NET *152 0.410871

*CONN
*I *446:B0N I *C 11.900 11.900
*I *444:Y O *C 10.100 11.525
*N *152:1 *C 11.900 12.300
*N *152:3 *C 10.300 12.500
*N *152:4 *C 10.300 12.300
*N *152:5 *C 10.100 12.500
*N *152:6 *C 10.300 12.500
*N *152:7 *C 11.900 12.300

*CAP
1 *152:1 0.029037
2 *446:B0N 0.029037
3 *152:3 0.018733
4 *152:4 0.096969
5 *152:5 0.079430
6 *152:6 0.011412
7 *152:7 0.078235
8 *444:Y 0.068019

*RES
1 *446:B0N *152:1 0.365600
2 *152:4 *152:3 0.182800
3 *152:5 *152:6 0.182800
4 *152:4 *152:7 1.462400
5 *444:Y *152:5 0.891150
6 *152:3 *152:6 2.000000
7 *152:7 *152:1 2.000000
*END

*D_NET *153 0.141145

*CONN
*I *447:Y O *C 12.700 11.700
*I *448:B I *C 13.500 11.700
*N *153:1 *C 12.700 11.700
*N *153:2 *C 13.500 11.700

*CAP
1 *153:1 0.070572
2 *153:2 0.070572

*RES
1 *153:1 *153:2 0.731200
2 *153:1 *447:Y 2.000000
3 *153:2 *448:B 2.000000
*END

*D_NET *154 1.574487

*CONN
*I *448:A I *C 14.700 11.900
*I *449:A0 I *C 16.100 11.725
*I *425:Y O *C 6.700 10.692
*N *154:1 *C 14.700 11.300
*N *154:3 *C 16.100 11.500
*N *154:6 *C 6.700 11.300
*N *154:7 *C 14.700 11.300
*N *154:8 *C 14.700 11.500
*N *154:9 *C 16.100 11.500
*N *154:10 *C 6.700 11.300

*CAP
1 *154:1 0.047414
2 *448:A 0.047414
3 *154:3 0.021631
4 *449:A0 0.021631
5 *425:Y 0.025713
6 *154:6 0.025713
7 *154:7 0.585816
8 *154:8 0.115666
9 *154:9 0.106669
10 *154:10 0.576819

*RES
1 *154:1 *448:A 0.548400
2 *154:3 *449:A0 0.205650
3 *425:Y *154:6 0.555712
4 *154:7 *154:8 0.182800
5 *154:8 *154:9 1.279600
6 *154:10 *154:7 7.312000
7 *154:10 *154:6 2.000000
8 *154:7 *154:1 2.000000
9 *154:9 *154:3 2.000000
*END

*D_NET *155 0.365323

*CONN
*I *449:Y O *C 16.700 12.100
*I *450:A I *C 18.300 11.900
*N *155:1 *C 16.900 11.900
*N *155:2 *C 18.300 11.900
*N *155:4 *C 16.700 11.900
*N *155:5 *C 16.900 11.900

*CAP
1 *155:1 0.143369
2 *155:2 0.143369
3 *449:Y 0.029723
4 *155:4 0.039292
5 *155:5 0.009569

*RES
1 *155:1 *155:2 1.279600
2 *155:4 *449:Y 0.182800
3 *155:4 *155:5 0.182800
4 *155:1 *155:5 2.000000
5 *155:2 *450:A 2.000000
*END

*D_NET *156 0.576190

*CONN
*I *450:B I *C 17.100 11.700
*I *451:Y O *C 20.700 11.500
*N *156:2 *C 17.100 11.500
*N *156:3 *C 17.100 11.500
*N *156:4 *C 20.700 11.500
*N *156:6 *C 20.700 11.675

*CAP
1 *450:B 0.010559
2 *156:2 0.010559
3 *156:3 0.266142
4 *156:4 0.266142
5 *451:Y 0.011394
6 *156:6 0.011394

*RES
1 *156:2 *450:B 0.182800
2 *156:3 *156:4 3.290400
3 *451:Y *156:6 0.159950
4 *156:3 *156:2 2.000000
5 *156:4 *451:Y 2.000000
*END

*D_NET *157 6.088038

*CONN
*I *564:A I *C 19.100 20.300
*I *428:AN I *C 11.500 10.110
*I *446:A1 I *C 11.300 11.700
*I *444:A1 I *C 9.700 12.100
*I *451:B I *C 19.100 11.700
*I *453:Q O *C 29.500 11.700
*N *157:1 *C 16.100 12.100
*N *157:2 *C 16.100 20.900
*N *157:3 *C 16.900 10.700
*N *157:4 *C 16.900 12.100
*N *157:5 *C 19.100 20.900
*N *157:7 *C 11.500 10.100
*N *157:8 *C 13.700 10.100
*N *157:9 *C 9.500 11.100
*N *157:10 *C 9.500 11.525
*N *157:11 *C 19.100 12.100
*N *157:12 *C 28.500 12.100
*N *157:13 *C 13.700 10.100
*N *157:14 *C 13.700 10.700
*N *157:15 *C 16.900 12.100
*N *157:16 *C 11.500 11.700
*N *157:18 *C 9.700 11.525
*N *157:19 *C 11.500 10.100
*N *157:21 *C 13.700 10.700
*N *157:22 *C 16.900 10.700
*N *157:23 *C 9.300 11.100
*N *157:25 *C 28.500 11.300
*N *157:26 *C 29.500 11.300
*N *157:27 *C 16.100 20.900
*N *157:28 *C 19.100 20.900
*N *157:29 *C 28.500 12.100
*N *157:30 *C 9.300 10.100
*N *157:31 *C 19.100 12.100
*N *157:34 *C 9.300 10.100

*CAP
1 *157:1 0.573731
2 *157:2 0.539713
3 *157:3 0.111135
4 *157:4 0.145152
5 *157:5 0.033479
6 *564:A 0.033479
7 *157:7 0.288754
8 *157:8 0.145873
9 *157:9 0.028183
10 *157:10 0.028774
11 *157:11 1.065503
12 *157:12 0.859686
13 *157:13 0.046700
14 *157:14 0.046700
15 *157:15 0.205817
16 *157:16 0.109561
17 *428:AN 0.105527
18 *157:18 0.057936
19 *157:19 0.005535
20 *446:A1 0.009569
21 *157:21 0.221846
22 *157:22 0.221846
23 *157:23 0.085821
24 *444:A1 0.048555
25 *157:25 0.092392
26 *157:26 0.050355
27 *157:27 0.296530
28 *157:28 0.296530
29 *157:29 0.055251
30 *157:30 0.142881
31 *157:31 0.022490
32 *451:B 0.022490
33 *453:Q 0.013215
34 *157:34 0.077030

*RES
1 *157:1 *157:2 8.043200
2 *157:3 *157:4 1.279600
3 *564:A *157:5 0.548400
4 *157:7 *157:8 2.010800
5 *157:1 *157:4 0.731200
6 *157:9 *157:10 0.388450
7 *157:11 *157:12 8.591600
8 *157:13 *157:14 0.548400
9 *157:15 *157:11 2.010800
10 *428:AN *157:16 1.453260
11 *157:10 *157:18 0.182800
12 *157:19 *428:AN 0.009140
13 *446:A1 *157:16 0.182800
14 *157:21 *157:22 2.924800
15 *157:23 *157:9 0.182800
16 *157:18 *444:A1 0.525550
17 *157:25 *157:26 0.914000
18 *157:27 *157:28 2.742000
19 *157:25 *157:29 0.731200
20 *157:30 *157:7 2.010800
21 *451:B *157:31 0.365600
22 *157:26 *453:Q 0.365600
23 *157:34 *157:23 0.914000
24 *157:30 *157:34 2.000000
25 *157:11 *157:31 2.000000
26 *157:8 *157:13 2.000000
27 *157:3 *157:22 2.000000
28 *157:12 *157:29 2.000000
29 *157:28 *157:5 2.000000
30 *157:4 *157:15 2.000000
31 *157:7 *157:19 2.000000
32 *157:21 *157:14 2.000000
33 *157:2 *157:27 2.000000
*END

*D_NET *158 10.006017

*CONN
*I *565:A I *C 21.100 20.300
*I *350:B I *C 33.900 4.892
*I *455:A I *C 30.700 11.900
*I *360:B I *C 8.500 6.100
*I *454:A I *C 30.300 11.900
*I *355:AN I *C 40.100 4.892
*I *456:Q O *C 35.500 11.700
*N *158:1 *C 30.700 11.500
*N *158:2 *C 21.100 11.500
*N *158:3 *C 7.900 12.700
*N *158:4 *C 7.900 9.700
*N *158:5 *C 21.100 18.500
*N *158:7 *C 8.300 9.700
*N *158:8 *C 8.300 8.674
*N *158:9 *C 33.900 11.500
*N *158:10 *C 33.900 4.100
*N *158:12 *C 7.900 9.700
*N *158:13 *C 8.300 9.700
*N *158:15 *C 30.700 11.500
*N *158:16 *C 21.100 11.500
*N *158:17 *C 21.100 12.700
*N *158:18 *C 33.900 11.500
*N *158:19 *C 33.900 4.300
*N *158:20 *C 33.900 4.100
*N *158:21 *C 40.100 4.100
*N *158:22 *C 8.500 8.674
*N *158:24 *C 21.100 18.500
*N *158:26 *C 21.100 12.700
*N *158:27 *C 7.900 12.700
*N *158:28 *C 33.900 11.700
*N *158:29 *C 40.100 4.100
*N *158:31 *C 35.500 11.700
*N *158:32 *C 33.900 4.300
*N *158:34 *C 21.100 18.500

*CAP
1 *158:1 1.052060
2 *158:2 0.777554
3 *158:3 0.314797
4 *158:4 0.314797
5 *158:5 0.104918
6 *565:A 0.104918
7 *158:7 0.062729
8 *158:8 0.072298
9 *158:9 0.283504
10 *158:10 0.049640
11 *350:B 0.049640
12 *158:12 0.037477
13 *158:13 0.037477
14 *455:A 0.039886
15 *158:15 0.022985
16 *158:16 0.109201
17 *158:17 0.680962
18 *158:18 0.567383
19 *158:19 0.567383
20 *158:20 0.586822
21 *158:21 0.572956
22 *158:22 0.151681
23 *360:B 0.142112
24 *158:24 0.571761
25 *454:A 0.016901
26 *158:26 1.159287
27 *158:27 1.159287
28 *158:28 0.164624
29 *158:29 0.030742
30 *355:AN 0.030742
31 *158:31 0.155627
32 *158:32 0.013865

*RES
1 *158:2 *158:1 8.774400
2 *158:4 *158:3 2.742000
3 *158:5 *565:A 1.645200
4 *158:8 *158:7 0.937764
5 *158:1 *158:9 2.924800
6 *158:10 *350:B 0.723888
7 *158:12 *158:13 0.365600
8 *158:15 *455:A 0.365600
9 *158:16 *158:17 1.096800
10 *158:19 *158:18 6.580800
11 *158:20 *158:21 5.666800
12 *360:B *158:22 2.352636
13 *158:17 *158:24 5.301200
14 *454:A *455:A 0.365600
15 *158:27 *158:26 12.064800
16 *158:9 *158:28 0.182800
17 *158:29 *355:AN 0.723888
18 *158:28 *158:31 1.462400
19 *158:20 *158:32 0.182800
20 *158:8 *158:22 0.182800
21 *158:19 *158:32 2.000000
22 *158:31 *456:Q 2.000000
23 *158:20 *158:10 2.000000
24 *158:34 *158:5 2.000000
25 *158:21 *158:29 2.000000
26 *158:1 *158:15 2.000000
27 *158:18 *158:9 2.000000
28 *158:26 *158:17 2.000000
29 *158:16 *158:2 2.000000
30 *158:13 *158:7 2.000000
31 *158:4 *158:12 2.000000
32 *158:27 *158:3 2.000000
33 *158:24 *158:34 2.000000
*END

*D_NET *159 1.747245

*CONN
*I *454:Y O *C 29.900 11.700
*I *478:A1 I *C 38.500 14.900
*N *159:2 *C 29.900 12.500
*N *159:3 *C 30.300 12.700
*N *159:4 *C 38.500 12.700
*N *159:5 *C 38.500 12.700
*N *159:7 *C 30.300 12.500
*N *159:8 *C 30.300 12.700

*CAP
1 *454:Y 0.062979
2 *159:2 0.086419
3 *159:3 0.684674
4 *159:4 0.684674
5 *159:5 0.091364
6 *478:A1 0.091364
7 *159:7 0.034606
8 *159:8 0.011166

*RES
1 *454:Y *159:2 0.731200
2 *159:3 *159:4 7.494800
3 *159:5 *478:A1 2.010800
4 *159:2 *159:7 0.365600
5 *159:7 *159:8 0.182800
6 *159:4 *159:5 2.000000
7 *159:3 *159:8 2.000000
*END

*D_NET *160 9.820751

*CONN
*I *547:A1N I *C 29.700 18.892
*I *382:AN I *C 5.300 7.695
*I *455:B I *C 30.900 11.675
*I *375:A I *C 33.100 6.500
*I *426:Y O *C 9.700 10.700
*I *363:A0 I *C 13.700 6.300
*I *373:A I *C 31.500 6.500
*I *354:B0 I *C 38.900 4.692
*I *454:B I *C 29.700 12.100
*I *359:A I *C 7.700 6.300
*N *160:1 *C 31.300 3.700
*N *160:2 *C 31.300 6.700
*N *160:3 *C 10.100 6.100
*N *160:4 *C 10.100 6.300
*N *160:5 *C 7.700 6.100
*N *160:6 *C 8.900 6.100
*N *160:7 *C 31.500 6.500
*N *160:8 *C 33.100 6.500
*N *160:9 *C 29.700 18.100
*N *160:11 *C 31.500 6.700
*N *160:13 *C 5.300 6.900
*N *160:14 *C 8.700 10.065
*N *160:15 *C 9.100 10.065
*N *160:16 *C 31.500 6.700
*N *160:17 *C 31.100 11.675
*N *160:20 *C 33.300 6.500
*N *160:21 *C 7.700 6.300
*N *160:23 *C 9.700 10.692
*N *160:24 *C 5.700 6.900
*N *160:25 *C 29.900 12.700
*N *160:26 *C 29.900 18.100
*N *160:27 *C 8.700 8.500
*N *160:28 *C 30.900 11.700
*N *160:29 *C 8.900 6.100
*N *160:30 *C 8.900 8.500
*N *160:32 *C 13.700 3.700
*N *160:33 *C 31.100 11.100
*N *160:34 *C 31.500 11.100
*N *160:35 *C 31.100 11.100
*N *160:36 *C 33.300 6.900
*N *160:37 *C 31.500 11.100
*N *160:38 *C 5.700 6.300
*N *160:39 *C 30.900 11.700
*N *160:40 *C 30.100 11.700
*N *160:41 *C 30.100 11.700
*N *160:42 *C 30.100 12.100
*N *160:43 *C 33.700 6.900
*N *160:44 *C 33.700 6.700
*N *160:45 *C 5.700 6.300
*N *160:46 *C 29.700 12.700
*N *160:47 *C 33.700 6.700
*N *160:48 *C 38.900 6.700
*N *160:50 *C 31.500 6.490
*N *160:51 *C 13.700 6.300
*N *160:52 *C 9.100 10.700
*N *160:53 *C 9.700 10.700
*N *160:54 *C 13.700 3.700
*N *160:55 *C 31.300 3.700
*N *160:56 *C 38.900 6.700
*N *160:59 *C 9.100 10.700
*N *160:60 *C 33.100 6.490
*N *160:61 *C 30.100 12.100
*N *160:62 *C 29.700 12.100

*CAP
1 *160:1 0.218982
2 *160:2 0.232866
3 *160:3 0.108903
4 *160:4 0.300552
5 *160:5 0.103782
6 *160:6 0.194690
7 *160:7 0.140117
8 *160:8 0.131120
9 *160:9 0.071652
10 *547:A1N 0.062082
11 *160:11 0.008997
12 *382:AN 0.058483
13 *160:13 0.076274
14 *160:14 0.100690
15 *160:15 0.065521
16 *160:16 0.292140
17 *160:17 0.033855
18 *455:B 0.018866
19 *375:A 0.022530
20 *160:20 0.036793
21 *160:21 0.205586
22 *426:Y 0.004440
23 *160:23 0.004440
24 *160:24 0.052351
25 *160:25 0.318764
26 *160:26 0.312046
27 *160:27 0.094311
28 *160:28 0.009068
29 *160:29 0.131595
30 *160:30 0.136379
31 *363:A0 0.138044
32 *160:32 0.138044
33 *160:33 0.024057
34 *160:34 0.049902
35 *160:35 0.049902
36 *160:36 0.039183
37 *160:37 0.278255
38 *160:38 0.034561
39 *160:39 0.090547
40 *160:40 0.090547
41 *160:41 0.037371
42 *160:42 0.037371
43 *160:43 0.028145
44 *160:44 0.011322
45 *160:45 0.196588
46 *160:46 0.057099
47 *160:47 0.381616
48 *160:48 0.381616
49 *373:A 0.004136
50 *160:50 0.004136
51 *160:51 0.291555
52 *160:52 0.060555
53 *160:53 0.060555
54 *160:54 1.640242
55 *160:55 1.640242
56 *160:56 0.151011
57 *354:B0 0.151011
58 *454:B 0.040812
59 *160:59 0.054357
60 *160:60 0.008096
61 *160:61 0.051003
62 *160:62 0.051003

*RES
1 *160:1 *160:2 2.742000
2 *160:3 *160:4 0.182800
3 *160:5 *160:6 1.096800
4 *160:7 *160:8 1.462400
5 *160:9 *547:A1N 0.723888
6 *160:7 *160:11 0.182800
7 *160:13 *382:AN 0.726630
8 *160:6 *160:3 1.096800
9 *160:14 *160:15 0.365600
10 *160:2 *160:16 0.182800
11 *455:B *160:17 0.182800
12 *375:A *160:20 0.182800
13 *160:5 *160:21 0.182800
14 *160:23 *426:Y 0.007312
15 *160:13 *160:24 0.365600
16 *160:25 *160:26 4.935600
17 *160:27 *160:14 1.430410
18 *455:B *160:28 0.022850
19 *160:29 *160:30 2.193600
20 *160:32 *363:A0 2.376400
21 *160:33 *160:17 0.525550
22 *160:27 *160:30 0.182800
23 *160:35 *160:34 0.365600
24 *160:20 *160:36 0.365600
25 *160:16 *160:37 4.021600
26 *160:38 *160:24 0.548400
27 *160:40 *160:39 0.731200
28 *160:41 *160:42 0.365600
29 *160:44 *160:43 0.182800
30 *160:45 *160:21 1.828000
31 *160:46 *160:25 0.182800
32 *160:47 *160:48 4.752800
33 *160:50 *373:A 0.009140
34 *160:4 *160:51 3.290400
35 *160:52 *160:53 0.548400
36 *160:54 *160:55 16.086400
37 *160:9 *160:26 0.182800
38 *160:36 *160:43 0.365600
39 *354:B0 *160:56 1.835312
40 *454:B *160:46 0.548400
41 *160:15 *160:59 0.580390
42 *160:60 *375:A 0.009140
43 *160:62 *160:61 0.365600
44 *160:47 *160:44 2.000000
45 *160:37 *160:34 2.000000
46 *160:16 *160:11 2.000000
47 *160:39 *160:28 2.000000
48 *160:45 *160:38 2.000000
49 *160:48 *160:56 2.000000
50 *160:21 *359:A 2.000000
51 *160:62 *454:B 2.000000
52 *160:7 *373:A 2.000000
53 *160:35 *160:33 2.000000
54 *160:8 *375:A 2.000000
55 *160:51 *363:A0 2.000000
56 *160:52 *160:59 2.000000
57 *160:53 *426:Y 2.000000
58 *160:54 *160:32 2.000000
59 *160:40 *160:41 2.000000
60 *160:1 *160:55 2.000000
61 *160:61 *160:42 2.000000
62 *160:6 *160:29 2.000000
*END

*D_NET *161 1.629060

*CONN
*I *455:Y O *C 31.100 12.100
*I *478:B0 I *C 38.700 14.700
*N *161:2 *C 31.100 15.300
*N *161:3 *C 31.100 15.300
*N *161:4 *C 38.700 15.300
*N *161:5 *C 38.700 15.300

*CAP
1 *455:Y 0.127065
2 *161:2 0.127065
3 *161:3 0.644555
4 *161:4 0.644555
5 *161:5 0.042910
6 *478:B0 0.042910

*RES
1 *455:Y *161:2 2.924800
2 *161:3 *161:4 6.946400
3 *478:B0 *161:5 0.548400
4 *161:4 *161:5 2.000000
5 *161:3 *161:2 2.000000
*END

*D_NET *162 6.405634

*CONN
*I *459:Q O *C 7.100 13.492
*I *566:A I *C 23.100 20.300
*I *457:B I *C 36.300 11.900
*I *458:B I *C 37.300 11.900
*N *162:1 *C 22.700 19.300
*N *162:2 *C 23.100 19.300
*N *162:3 *C 30.500 12.100
*N *162:4 *C 33.800 12.100
*N *162:5 *C 30.500 13.900
*N *162:6 *C 30.500 12.100
*N *162:7 *C 6.900 13.700
*N *162:8 *C 16.500 13.700
*N *162:9 *C 22.700 13.900
*N *162:10 *C 30.500 13.900
*N *162:11 *C 33.800 11.900
*N *162:13 *C 6.900 13.492
*N *162:14 *C 6.900 13.700
*N *162:15 *C 16.700 13.700
*N *162:16 *C 16.700 13.900
*N *162:17 *C 16.500 13.700
*N *162:18 *C 22.700 13.900
*N *162:19 *C 22.700 19.300
*N *162:20 *C 23.100 19.300
*N *162:22 *C 36.300 11.900
*N *162:23 *C 37.300 11.900
*N *162:25 *C 16.500 13.700

*CAP
1 *162:1 0.041962
2 *162:2 0.041962
3 *162:3 0.231097
4 *162:4 0.240094
5 *162:5 0.151039
6 *162:6 0.151039
7 *162:7 0.770831
8 *162:8 0.770831
9 *162:9 1.157692
10 *162:10 0.667378
11 *162:11 0.180926
12 *459:Q 0.010488
13 *162:13 0.023479
14 *162:14 0.012991
15 *162:15 0.046319
16 *162:16 0.509171
17 *162:17 0.027461
18 *162:18 0.445199
19 *162:19 0.445199
20 *162:20 0.082169
21 *566:A 0.082169
22 *162:22 0.244033
23 *162:23 0.072104

*RES
1 *162:1 *162:2 0.365600
2 *162:3 *162:4 3.016200
3 *162:6 *162:5 1.645200
4 *162:7 *162:8 8.774400
5 *162:9 *162:10 7.129200
6 *162:11 *162:4 0.182800
7 *162:13 *459:Q 0.182800
8 *162:13 *162:14 0.190112
9 *162:15 *162:16 0.182800
10 *162:17 *162:15 0.182800
11 *162:18 *162:19 4.935600
12 *162:16 *162:9 5.484000
13 *162:20 *566:A 0.914000
14 *162:11 *162:22 2.285000
15 *162:22 *162:23 0.914000
16 *162:9 *162:18 2.000000
17 *162:2 *162:20 2.000000
18 *162:19 *162:1 2.000000
19 *162:7 *162:14 2.000000
20 *162:22 *457:B 2.000000
21 *162:10 *162:5 2.000000
22 *162:17 *162:25 2.000000
23 *162:6 *162:3 2.000000
24 *162:25 *162:8 2.000000
25 *162:23 *458:B 2.000000
*END

*D_NET *163 8.051010

*CONN
*I *358:C I *C 5.300 6.500
*I *349:A0 I *C 32.500 4.692
*I *351:B0 I *C 34.900 4.700
*I *480:B I *C 5.500 15.892
*I *457:Y O *C 36.500 12.300
*N *163:2 *C 5.100 6.500
*N *163:4 *C 32.500 5.700
*N *163:5 *C 35.700 12.300
*N *163:6 *C 36.500 12.300
*N *163:7 *C 34.100 5.700
*N *163:8 *C 34.100 5.500
*N *163:9 *C 35.700 7.100
*N *163:10 *C 35.700 12.300
*N *163:11 *C 5.300 6.300
*N *163:13 *C 34.900 4.892
*N *163:14 *C 34.100 5.500
*N *163:15 *C 34.100 4.700
*N *163:16 *C 5.100 6.500
*N *163:17 *C 5.100 1.700
*N *163:18 *C 24.500 2.300
*N *163:19 *C 32.500 2.300
*N *163:20 *C 24.500 1.700
*N *163:21 *C 24.500 2.300
*N *163:22 *C 5.100 15.100
*N *163:23 *C 5.100 15.100
*N *163:24 *C 5.500 15.100
*N *163:25 *C 32.500 2.300
*N *163:26 *C 34.100 7.100
*N *163:27 *C 35.700 7.100
*N *163:28 *C 5.500 15.100
*N *163:30 *C 34.100 4.700
*N *163:31 *C 34.900 4.700
*N *163:32 *C 5.100 1.700
*N *163:33 *C 24.500 1.700
*N *163:34 *C 32.500 5.700
*N *163:35 *C 34.100 5.700
*N *163:36 *C 34.100 7.100
*N *163:38 *C 5.100 6.500

*CAP
1 *358:C 0.034061
2 *163:2 0.013254
3 *349:A0 0.212531
4 *163:4 0.089012
5 *163:5 0.066304
6 *163:6 0.066304
7 *163:7 0.155853
8 *163:8 0.012254
9 *163:9 0.468707
10 *163:10 0.468707
11 *163:11 0.020807
12 *351:B0 0.021874
13 *163:13 0.021874
14 *163:14 0.070648
15 *163:15 0.070648
16 *163:16 0.684297
17 *163:17 0.232450
18 *163:18 0.755289
19 *163:19 0.755289
20 *163:20 0.071335
21 *163:21 0.071335
22 *163:22 0.451847
23 *163:23 0.041275
24 *163:24 0.041275
25 *163:25 0.123518
26 *163:26 0.168534
27 *163:27 0.168534
28 *163:28 0.044887
29 *480:B 0.044887
30 *163:30 0.074230
31 *163:31 0.074230
32 *163:32 1.092892
33 *163:33 1.092892
34 *163:34 0.143599
35 *163:35 0.062789
36 *163:36 0.062789

*RES
1 *163:2 *358:C 0.182800
2 *349:A0 *163:4 0.921312
3 *163:5 *163:6 0.731200
4 *163:8 *163:7 0.182800
5 *163:9 *163:10 4.752800
6 *163:11 *358:C 0.182800
7 *351:B0 *163:13 0.175488
8 *163:15 *163:14 0.731200
9 *163:17 *163:16 4.387200
10 *163:18 *163:19 7.312000
11 *163:20 *163:21 0.548400
12 *163:16 *163:22 7.860400
13 *163:23 *163:24 0.365600
14 *163:25 *349:A0 2.186288
15 *163:26 *163:27 1.462400
16 *163:28 *480:B 0.723888
17 *163:30 *163:31 0.731200
18 *163:32 *163:33 17.731600
19 *163:34 *163:7 1.462400
20 *163:35 *163:36 1.279600
21 *163:24 *163:28 2.000000
22 *163:6 *457:Y 2.000000
23 *163:19 *163:25 2.000000
24 *163:34 *163:4 2.000000
25 *163:22 *163:23 2.000000
26 *163:15 *163:30 2.000000
27 *163:26 *163:36 2.000000
28 *163:10 *163:5 2.000000
29 *163:7 *163:35 2.000000
30 *163:14 *163:8 2.000000
31 *163:38 *163:2 2.000000
32 *163:16 *163:38 2.000000
33 *163:32 *163:17 2.000000
34 *163:21 *163:18 2.000000
35 *163:9 *163:27 2.000000
36 *163:33 *163:20 2.000000
37 *163:31 *351:B0 2.000000
*END

*D_NET *164 7.589667

*CONN
*I *351:A0 I *C 34.300 4.900
*I *349:C0 I *C 31.700 5.100
*I *480:AN I *C 5.100 15.892
*I *458:Z O *C 37.500 11.700
*I *355:B I *C 40.500 4.900
*I *358:AN I *C 4.700 6.500
*I *356:B I *C 3.300 6.100
*N *164:2 *C 34.300 4.895
*N *164:3 *C 17.000 4.900
*N *164:4 *C 31.700 4.900
*N *164:6 *C 31.700 5.092
*N *164:7 *C 7.100 6.100
*N *164:8 *C 7.100 5.100
*N *164:9 *C 37.500 5.500
*N *164:10 *C 37.500 11.700
*N *164:11 *C 17.000 5.100
*N *164:12 *C 5.100 6.900
*N *164:14 *C 31.700 4.900
*N *164:15 *C 31.700 5.100
*N *164:16 *C 34.300 4.900
*N *164:18 *C 37.500 11.675
*N *164:19 *C 4.700 6.900
*N *164:20 *C 4.700 6.100
*N *164:21 *C 3.300 6.100
*N *164:22 *C 7.100 5.100
*N *164:24 *C 40.500 4.892
*N *164:25 *C 37.500 4.900
*N *164:26 *C 40.500 4.900
*N *164:27 *C 37.500 5.500
*N *164:28 *C 7.100 6.100
*N *164:30 *C 4.700 6.100
*N *164:31 *C 37.500 11.700
*N *164:32 *C 40.500 4.900
*N *164:33 *C 40.500 4.900
*N *164:34 *C 34.300 4.900
*N *164:35 *C 31.700 5.100
*N *164:37 *C 34.300 4.900

*CAP
1 *351:A0 0.005219
2 *164:2 0.005219
3 *164:3 0.902419
4 *164:4 1.056253
5 *349:C0 0.004858
6 *164:6 0.004858
7 *164:7 0.091061
8 *164:8 0.091061
9 *164:9 0.488622
10 *164:10 0.488622
11 *164:11 0.829998
12 *164:12 0.490474
13 *480:AN 0.472683
14 *164:14 0.022242
15 *164:15 0.022242
16 *164:16 0.395345
17 *458:Z 0.008186
18 *164:18 0.008186
19 *164:19 0.036874
20 *164:20 0.327069
21 *164:21 0.125676
22 *164:22 0.816897
23 *355:B 0.005287
24 *164:24 0.005287
25 *164:25 0.427197
26 *164:26 0.169805
27 *164:27 0.028982
28 *164:28 0.201393
29 *358:AN 0.038367
30 *164:30 0.019284

*RES
1 *164:2 *351:A0 0.004570
2 *164:3 *164:4 13.435800
3 *164:6 *349:C0 0.007312
4 *164:8 *164:7 0.914000
5 *164:9 *164:10 5.666800
6 *164:3 *164:11 0.182800
7 *164:12 *480:AN 8.218688
8 *164:14 *164:15 0.182800
9 *164:4 *164:16 2.376400
10 *164:18 *458:Z 0.022850
11 *164:19 *164:12 0.365600
12 *164:21 *164:20 1.279600
13 *164:22 *164:11 9.048600
14 *164:24 *355:B 0.007312
15 *164:25 *164:26 2.742000
16 *164:25 *164:27 0.548400
17 *164:16 *164:25 2.924800
18 *164:20 *164:28 2.193600
19 *164:30 *358:AN 0.365600
20 *358:AN *164:19 0.365600
21 *164:10 *164:31 2.000000
22 *164:26 *164:32 2.000000
23 *164:32 *164:33 2.000000
24 *164:16 *164:34 2.000000
25 *164:20 *164:30 2.000000
26 *164:15 *164:35 2.000000
27 *164:33 *355:B 2.000000
28 *164:35 *349:C0 2.000000
29 *164:7 *164:28 2.000000
30 *164:21 *356:B 2.000000
31 *164:4 *164:14 2.000000
32 *164:22 *164:8 2.000000
33 *164:27 *164:9 2.000000
34 *164:34 *164:37 2.000000
35 *164:37 *351:A0 2.000000
36 *164:31 *458:Z 2.000000
*END

*D_NET *165 8.578429

*CONN
*I *345:A I *C 24.500 4.895
*I *576:A I *C 39.500 20.300
*I *484:B0 I *C 16.700 16.092
*I *404:AN I *C 10.500 9.290
*I *460:Q O *C 11.500 13.492
*I *485:A I *C 17.900 16.092
*N *165:1 *C 23.900 7.900
*N *165:2 *C 24.500 7.900
*N *165:3 *C 24.500 7.900
*N *165:5 *C 24.500 17.000
*N *165:6 *C 25.300 17.000
*N *165:7 *C 10.100 9.300
*N *165:8 *C 10.100 12.900
*N *165:9 *C 23.900 12.700
*N *165:10 *C 23.900 7.900
*N *165:11 *C 24.500 14.900
*N *165:12 *C 10.500 9.300
*N *165:13 *C 10.100 9.300
*N *165:14 *C 17.900 15.100
*N *165:15 *C 21.900 15.100
*N *165:16 *C 39.500 24.500
*N *165:18 *C 16.700 13.700
*N *165:21 *C 10.500 9.300
*N *165:22 *C 11.500 12.900
*N *165:24 *C 24.500 12.700
*N *165:25 *C 23.900 12.700
*N *165:26 *C 25.300 24.500
*N *165:27 *C 39.500 24.500
*N *165:28 *C 21.900 14.900
*N *165:29 *C 16.700 12.900
*N *165:30 *C 24.500 12.700
*N *165:31 *C 10.100 12.900
*N *165:32 *C 11.500 12.900
*N *165:33 *C 25.300 24.500
*N *165:34 *C 16.700 12.900
*N *165:35 *C 17.900 15.100
*N *165:37 *C 24.500 14.900
*N *165:38 *C 17.900 13.700

*CAP
1 *165:1 0.070932
2 *165:2 0.070932
3 *165:3 0.146717
4 *345:A 0.146717
5 *165:5 0.206792
6 *165:6 0.365303
7 *165:7 0.319202
8 *165:8 0.319202
9 *165:9 0.392971
10 *165:10 0.392971
11 *165:11 0.349304
12 *165:12 0.043491
13 *165:13 0.043491
14 *165:14 0.323324
15 *165:15 0.332321
16 *165:16 0.144073
17 *576:A 0.144073
18 *165:18 0.242871
19 *484:B0 0.164161
20 *404:AN 0.004948
21 *165:21 0.004948
22 *165:22 0.033975
23 *460:Q 0.033975
24 *165:24 0.037654
25 *165:25 0.037654
26 *165:26 0.927646
27 *165:27 0.927646
28 *165:28 0.238189
29 *165:29 0.037244
30 *165:30 0.171413
31 *165:31 0.098553
32 *165:32 0.513835
33 *165:33 0.336403
34 *165:34 0.415283
35 *165:35 0.134780
36 *485:A 0.076221
37 *165:37 0.229191
38 *165:38 0.100025

*RES
1 *165:1 *165:2 0.548400
2 *345:A *165:3 2.746570
3 *165:5 *165:6 0.731200
4 *165:7 *165:8 3.290400
5 *165:10 *165:9 4.387200
6 *165:11 *165:5 1.919400
7 *165:13 *165:12 0.365600
8 *165:14 *165:15 3.656000
9 *576:A *165:16 3.838800
10 *165:18 *484:B0 2.186288
11 *404:AN *165:21 0.009140
12 *165:22 *460:Q 0.541088
13 *165:25 *165:24 0.548400
14 *165:26 *165:27 12.978800
15 *165:28 *165:15 0.182800
16 *165:29 *165:18 0.731200
17 *165:30 *165:11 2.010800
18 *165:31 *165:32 1.279600
19 *165:6 *165:33 6.855000
20 *165:32 *165:34 4.752800
21 *165:35 *485:A 0.906688
22 *165:28 *165:37 2.376400
23 *165:38 *165:35 1.279600
24 *165:18 *165:38 1.096800
25 *165:34 *165:29 2.000000
26 *165:7 *165:13 2.000000
27 *165:12 *165:21 2.000000
28 *165:27 *165:16 2.000000
29 *165:10 *165:1 2.000000
30 *165:2 *165:3 2.000000
31 *165:9 *165:25 2.000000
32 *165:8 *165:31 2.000000
33 *165:14 *165:35 2.000000
34 *165:32 *165:22 2.000000
35 *165:24 *165:30 2.000000
36 *165:26 *165:33 2.000000
37 *165:37 *165:11 2.000000
*END

*D_NET *166 8.248637

*CONN
*I *471:CK I *C 7.500 14.700
*I *463:CK I *C 20.700 13.300
*I *468:CK I *C 32.700 13.292
*I *460:CK I *C 7.500 13.292
*I *462:CK I *C 16.300 13.500
*I *473:CK I *C 16.300 14.700
*I *470:CK I *C 3.100 14.500
*I *472:CK I *C 11.900 14.700
*I *464:CK I *C 25.100 13.300
*I *475:CK I *C 25.100 14.700
*I *474:CK I *C 20.700 14.700
*I *461:CK I *C 11.900 13.292
*I *342:ECK I *C 13.900 5.300
*I *476:CK I *C 29.500 14.700
*I *477:CK I *C 33.900 14.700
*I *481:CK I *C 6.100 16.092
*I *482:CK I *C 10.500 16.092
*N *166:1 *C 21.900 13.300
*N *166:2 *C 25.100 13.300
*N *166:3 *C 7.500 14.500
*N *166:4 *C 3.100 14.500
*N *166:5 *C 32.700 14.700
*N *166:6 *C 33.900 14.700
*N *166:7 *C 13.900 12.700
*N *166:8 *C 11.900 12.700
*N *166:10 *C 7.500 14.500
*N *166:12 *C 20.700 13.292
*N *166:13 *C 29.500 14.700
*N *166:14 *C 32.700 14.700
*N *166:16 *C 7.500 16.092
*N *166:20 *C 7.500 16.092
*N *166:21 *C 6.100 16.092
*N *166:23 *C 3.100 14.700
*N *166:24 *C 16.100 12.700
*N *166:25 *C 10.500 16.092
*N *166:26 *C 21.900 13.500
*N *166:27 *C 21.900 13.300
*N *166:29 *C 11.900 16.092
*N *166:31 *C 25.100 13.292
*N *166:32 *C 16.100 13.292
*N *166:33 *C 16.100 12.700
*N *166:35 *C 11.900 16.092
*N *166:37 *C 11.900 12.700
*N *166:39 *C 16.300 13.292
*N *166:40 *C 16.300 13.500
*N *166:41 *C 21.900 13.500
*N *166:42 *C 13.900 12.700
*N *166:44 *C 25.100 14.700
*N *166:45 *C 20.700 13.300
*N *166:49 *C 16.300 13.500
*N *166:50 *C 16.300 13.500

*CAP
1 *166:1 0.434232
2 *166:2 0.309238
3 *166:3 0.215544
4 *166:4 0.215544
5 *166:5 0.332866
6 *166:6 0.074214
7 *166:7 0.340952
8 *166:8 0.161461
9 *471:CK 0.138427
10 *166:10 0.147429
11 *463:CK 0.110685
12 *166:12 0.007188
13 *166:13 0.649846
14 *166:14 0.149409
15 *468:CK 0.149409
16 *166:16 0.108703
17 *460:CK 0.117706
18 *462:CK 0.069675
19 *473:CK 0.054289
20 *166:20 0.270424
21 *166:21 0.089252
22 *470:CK 0.010730
23 *166:23 0.010730
24 *166:24 0.179491
25 *166:25 0.296329
26 *166:26 0.019159
27 *166:27 0.019159
28 *472:CK 0.260665
29 *166:29 0.138072
30 *464:CK 0.113406
31 *166:31 0.007491
32 *166:32 0.045053
33 *166:33 0.035484
34 *475:CK 0.105915
35 *166:35 0.115157
36 *474:CK 0.103497
37 *166:37 0.042063
38 *461:CK 0.164656
39 *166:39 0.024955
40 *166:40 0.517590
41 *166:41 0.517590
42 *166:42 0.429381
43 *342:ECK 0.429381
44 *166:44 0.391194
45 *166:45 0.124994

*RES
1 *166:1 *166:2 2.924800
2 *166:4 *166:3 4.021600
3 *166:5 *166:6 1.096800
4 *166:8 *166:7 1.828000
5 *166:10 *471:CK 0.182800
6 *166:12 *463:CK 0.007312
7 *166:13 *166:5 2.924800
8 *468:CK *166:14 1.286912
9 *471:CK *166:16 1.272288
10 *460:CK *166:10 1.104112
11 *462:CK *473:CK 1.096800
12 *166:21 *166:20 1.279600
13 *470:CK *166:23 0.182800
14 *166:7 *166:24 2.010800
15 *166:20 *166:25 2.742000
16 *166:27 *166:26 0.182800
17 *472:CK *166:29 1.272288
18 *166:31 *464:CK 0.007312
19 *166:33 *166:32 0.541088
20 *464:CK *475:CK 1.279600
21 *166:25 *166:35 1.279600
22 *463:CK *474:CK 1.279600
23 *166:37 *461:CK 0.541088
24 *166:32 *166:39 0.182800
25 *166:40 *166:41 5.118400
26 *461:CK *472:CK 1.286912
27 *342:ECK *166:42 6.763600
28 *166:39 *462:CK 0.190112
29 *166:44 *166:13 4.021600
30 *166:45 *166:1 1.096800
31 *166:2 *464:CK 2.000000
32 *166:41 *166:26 2.000000
33 *166:20 *166:16 2.000000
34 *166:13 *476:CK 2.000000
35 *166:6 *477:CK 2.000000
36 *166:21 *481:CK 2.000000
37 *166:8 *166:37 2.000000
38 *166:45 *463:CK 2.000000
39 *166:49 *462:CK 2.000000
40 *166:50 *166:49 2.000000
41 *166:4 *470:CK 2.000000
42 *166:40 *166:50 2.000000
43 *166:7 *166:42 2.000000
44 *166:35 *166:29 2.000000
45 *166:44 *475:CK 2.000000
46 *166:3 *166:10 2.000000
47 *166:5 *166:14 2.000000
48 *166:24 *166:33 2.000000
49 *166:25 *482:CK 2.000000
50 *166:27 *166:1 2.000000
*END

*D_NET *167 7.871710

*CONN
*I *347:AN I *C 29.700 4.710
*I *489:B I *C 23.500 16.095
*I *576:B I *C 39.900 20.100
*I *461:Q O *C 15.900 13.492
*I *348:AN I *C 30.700 4.710
*N *167:1 *C 24.100 13.700
*N *167:2 *C 24.100 15.300
*N *167:3 *C 27.900 13.700
*N *167:4 *C 27.900 12.500
*N *167:5 *C 31.100 13.100
*N *167:6 *C 33.800 13.100
*N *167:7 *C 31.100 12.500
*N *167:8 *C 31.100 13.100
*N *167:10 *C 29.700 4.692
*N *167:11 *C 15.900 13.100
*N *167:12 *C 24.700 13.100
*N *167:13 *C 23.500 15.300
*N *167:15 *C 39.900 19.300
*N *167:17 *C 24.700 13.700
*N *167:18 *C 24.100 13.700
*N *167:19 *C 27.900 13.700
*N *167:21 *C 15.900 13.100
*N *167:22 *C 40.300 12.900
*N *167:23 *C 40.300 19.300
*N *167:24 *C 30.700 4.710
*N *167:25 *C 29.700 4.710
*N *167:26 *C 31.100 4.710
*N *167:27 *C 24.700 13.100
*N *167:28 *C 24.700 13.700
*N *167:29 *C 27.900 12.500
*N *167:30 *C 31.100 12.500
*N *167:31 *C 33.800 12.900
*N *167:32 *C 31.100 4.710
*N *167:33 *C 40.300 12.900
*N *167:34 *C 24.100 15.300
*N *167:35 *C 23.500 15.300
*N *167:36 *C 15.900 13.100
*N *167:37 *C 15.900 13.100

*CAP
1 *167:1 0.168432
2 *167:2 0.168432
3 *167:3 0.053442
4 *167:4 0.053442
5 *167:5 0.182251
6 *167:6 0.191248
7 *167:7 0.785099
8 *167:8 0.071335
9 *347:AN 0.005772
10 *167:10 0.005772
11 *167:11 0.951961
12 *167:12 0.951961
13 *167:13 0.066856
14 *489:B 0.066856
15 *167:15 0.060787
16 *576:B 0.044625
17 *167:17 0.323359
18 *167:18 0.044540
19 *167:19 0.278819
20 *461:Q 0.027969
21 *167:21 0.027969
22 *167:22 0.370258
23 *167:23 0.386420
24 *167:24 0.083755
25 *167:25 0.058724
26 *167:26 0.025032
27 *167:27 0.060069
28 *167:28 0.060069
29 *167:29 0.296933
30 *167:30 0.296933
31 *167:31 0.427507
32 *167:32 0.713764
33 *167:33 0.418510
34 *167:34 0.071404
35 *167:35 0.071404

*RES
1 *167:1 *167:2 1.462400
2 *167:4 *167:3 1.096800
3 *167:5 *167:6 2.467800
4 *167:7 *167:8 0.548400
5 *167:10 *347:AN 0.016452
6 *167:11 *167:12 8.043200
7 *167:13 *489:B 0.726630
8 *167:15 *576:B 0.731200
9 *167:18 *167:17 0.548400
10 *167:17 *167:19 2.924800
11 *167:21 *461:Q 0.358288
12 *167:22 *167:23 5.849600
13 *167:25 *167:24 0.914000
14 *167:15 *167:23 0.365600
15 *167:24 *167:26 0.365600
16 *167:27 *167:28 0.548400
17 *167:29 *167:30 2.924800
18 *167:31 *167:6 0.182800
19 *167:32 *167:7 7.120060
20 *167:31 *167:33 5.941000
21 *167:35 *167:34 0.548400
22 *167:18 *167:1 2.000000
23 *167:19 *167:3 2.000000
24 *167:32 *167:26 2.000000
25 *167:29 *167:4 2.000000
26 *167:36 *167:37 2.000000
27 *167:37 *167:21 2.000000
28 *167:7 *167:30 2.000000
29 *167:34 *167:2 2.000000
30 *167:11 *167:36 2.000000
31 *167:35 *167:13 2.000000
32 *167:28 *167:17 2.000000
33 *167:8 *167:5 2.000000
34 *167:25 *347:AN 2.000000
35 *167:24 *348:AN 2.000000
36 *167:12 *167:27 2.000000
37 *167:33 *167:22 2.000000
*END

*D_NET *168 7.629545

*CONN
*I *362:A I *C 13.100 6.300
*I *462:Q O *C 20.300 13.500
*I *576:C I *C 40.100 20.300
*I *493:A I *C 30.100 15.910
*I *544:B0 I *C 25.900 18.892
*I *491:B0 I *C 26.900 16.092
*I *492:A I *C 28.100 15.910
*N *168:1 *C 28.100 15.910
*N *168:2 *C 30.100 15.910
*N *168:3 *C 37.500 19.900
*N *168:4 *C 40.100 19.900
*N *168:5 *C 36.100 16.100
*N *168:6 *C 36.100 17.000
*N *168:7 *C 37.500 18.300
*N *168:8 *C 37.500 19.900
*N *168:9 *C 16.500 4.700
*N *168:10 *C 17.900 4.700
*N *168:11 *C 36.300 17.000
*N *168:13 *C 13.100 5.100
*N *168:14 *C 26.900 15.910
*N *168:15 *C 30.100 16.500
*N *168:16 *C 34.700 16.500
*N *168:17 *C 24.700 16.900
*N *168:18 *C 25.900 16.900
*N *168:19 *C 36.300 18.300
*N *168:20 *C 17.900 4.700
*N *168:21 *C 17.900 13.500
*N *168:22 *C 34.700 16.100
*N *168:23 *C 24.700 16.500
*N *168:25 *C 20.300 13.492
*N *168:26 *C 20.500 16.500
*N *168:27 *C 40.100 19.900
*N *168:29 *C 20.500 13.500
*N *168:30 *C 20.500 16.500
*N *168:31 *C 36.100 16.100
*N *168:32 *C 26.900 16.500
*N *168:33 *C 17.900 13.500
*N *168:34 *C 20.300 13.500
*N *168:36 *C 30.100 16.095
*N *168:37 *C 30.100 16.500
*N *168:38 *C 25.900 16.900
*N *168:41 *C 26.900 15.910
*N *168:42 *C 16.500 5.100
*N *168:43 *C 16.500 4.700
*N *168:44 *C 13.100 5.100
*N *168:45 *C 16.500 5.100
*N *168:46 *C 36.300 18.300
*N *168:47 *C 37.500 18.300
*N *168:48 *C 26.900 16.500

*CAP
1 *168:1 0.252989
2 *168:2 0.153315
3 *168:3 0.218443
4 *168:4 0.218443
5 *168:5 0.070573
6 *168:6 0.082612
7 *168:7 0.171436
8 *168:8 0.171436
9 *168:9 0.152550
10 *168:10 0.152550
11 *168:11 0.143121
12 *362:A 0.050201
13 *168:13 0.050201
14 *168:14 0.099674
15 *168:15 0.373800
16 *168:16 0.388796
17 *168:17 0.077938
18 *168:18 0.062943
19 *168:19 0.131082
20 *168:20 0.585160
21 *168:21 0.585160
22 *168:22 0.136591
23 *168:23 0.517911
24 *462:Q 0.014388
25 *168:25 0.004819
26 *168:26 0.351781
27 *168:27 0.032421
28 *576:C 0.032421
29 *168:29 0.209574
30 *168:30 0.200005
31 *168:31 0.121596
32 *168:32 0.151135
33 *168:33 0.177741
34 *168:34 0.177741
35 *493:A 0.028237
36 *168:36 0.078271
37 *168:37 0.050034
38 *168:38 0.125971
39 *544:B0 0.125971
40 *491:B0 0.048629
41 *168:41 0.021065
42 *168:42 0.035313
43 *168:43 0.035313
44 *168:44 0.236695
45 *168:45 0.236695
46 *168:46 0.129619
47 *168:47 0.129619
48 *168:48 0.027564

*RES
1 *168:1 *168:2 1.828000
2 *168:3 *168:4 2.376400
3 *168:5 *168:6 0.822600
4 *168:7 *168:8 1.462400
5 *168:9 *168:10 1.279600
6 *168:6 *168:11 0.182800
7 *168:13 *362:A 1.096800
8 *168:14 *168:1 1.096800
9 *168:15 *168:16 4.204400
10 *168:17 *168:18 1.096800
11 *168:11 *168:19 1.188200
12 *168:20 *168:21 8.043200
13 *168:22 *168:16 0.365600
14 *168:23 *168:17 0.365600
15 *168:25 *462:Q 0.007312
16 *168:26 *168:23 3.838800
17 *168:27 *576:C 0.365600
18 *168:29 *168:30 2.742000
19 *168:22 *168:31 1.279600
20 *168:23 *168:32 2.010800
21 *168:33 *168:34 2.193600
22 *462:Q *168:29 0.182800
23 *493:A *168:36 0.169090
24 *168:36 *168:37 0.370170
25 *168:38 *544:B0 1.820688
26 *168:41 *491:B0 0.166348
27 *168:43 *168:42 0.365600
28 *168:44 *168:45 3.107600
29 *168:46 *168:47 1.096800
30 *491:B0 *168:48 0.372912
31 *168:7 *168:47 2.000000
32 *168:9 *168:43 2.000000
33 *168:4 *168:27 2.000000
34 *168:5 *168:31 2.000000
35 *168:21 *168:33 2.000000
36 *168:42 *168:45 2.000000
37 *168:1 *492:A 2.000000
38 *168:2 *493:A 2.000000
39 *168:34 *462:Q 2.000000
40 *168:10 *168:20 2.000000
41 *168:8 *168:3 2.000000
42 *168:32 *168:48 2.000000
43 *168:18 *168:38 2.000000
44 *168:44 *168:13 2.000000
45 *168:26 *168:30 2.000000
46 *168:19 *168:46 2.000000
47 *168:15 *168:37 2.000000
48 *168:14 *168:41 2.000000
*END

*D_NET *169 10.228274

*CONN
*I *376:A I *C 33.500 6.300
*I *496:B I *C 35.100 16.300
*I *371:A I *C 29.300 6.300
*I *463:Q O *C 24.700 13.500
*I *369:AN I *C 27.100 6.300
*I *577:A I *C 2.900 21.695
*I *549:A0 I *C 33.100 18.500
*N *169:1 *C 33.300 16.900
*N *169:2 *C 35.900 16.900
*N *169:3 *C 26.300 13.500
*N *169:4 *C 25.100 13.500
*N *169:5 *C 26.100 8.900
*N *169:6 *C 26.300 8.900
*N *169:7 *C 25.100 16.700
*N *169:8 *C 25.100 16.900
*N *169:9 *C 26.100 6.300
*N *169:10 *C 29.100 4.300
*N *169:11 *C 33.300 4.300
*N *169:12 *C 27.700 4.300
*N *169:13 *C 27.700 4.465
*N *169:14 *C 33.300 6.300
*N *169:16 *C 26.300 13.500
*N *169:18 *C 35.100 16.095
*N *169:19 *C 25.100 13.500
*N *169:20 *C 25.100 16.700
*N *169:21 *C 27.100 4.465
*N *169:23 *C 29.100 6.300
*N *169:25 *C 24.700 13.492
*N *169:27 *C 33.300 18.500
*N *169:28 *C 33.100 18.500
*N *169:29 *C 24.700 13.500
*N *169:30 *C 29.100 4.300
*N *169:31 *C 35.900 16.700
*N *169:32 *C 35.900 16.300
*N *169:33 *C 35.900 16.700
*N *169:34 *C 33.300 4.300
*N *169:35 *C 27.100 6.690
*N *169:36 *C 25.100 25.900
*N *169:37 *C 2.300 22.100
*N *169:38 *C 2.900 22.100
*N *169:39 *C 27.700 4.300
*N *169:41 *C 33.300 16.700
*N *169:42 *C 27.100 6.300
*N *169:43 *C 26.100 6.300
*N *169:45 *C 33.100 18.515
*N *169:46 *C 35.900 16.300
*N *169:47 *C 35.100 16.300
*N *169:48 *C 25.100 25.900
*N *169:49 *C 2.300 25.900
*N *169:50 *C 2.300 25.900
*N *169:51 *C 33.300 16.700
*N *169:52 *C 33.300 18.500

*CAP
1 *169:1 0.879973
2 *169:2 0.247123
3 *169:3 0.123566
4 *169:4 0.174568
5 *169:5 0.196642
6 *169:6 0.356295
7 *169:7 0.013101
8 *169:8 0.642775
9 *169:9 0.185940
10 *169:10 0.375874
11 *169:11 0.267764
12 *169:12 0.011810
13 *169:13 0.034138
14 *169:14 0.136102
15 *376:A 0.017836
16 *169:16 0.345593
17 *496:B 0.010462
18 *169:18 0.010462
19 *169:19 0.256536
20 *169:20 0.906663
21 *169:21 0.097835
22 *371:A 0.009569
23 *169:23 0.123548
24 *463:Q 0.008068
25 *169:25 0.008068
26 *369:AN 0.093175
27 *169:27 0.023727
28 *169:28 0.023727
29 *169:29 0.051003
30 *169:30 0.113979
31 *169:31 0.049839
32 *169:32 0.049839
33 *169:33 0.009926
34 *169:34 0.118267
35 *169:35 0.017668
36 *169:36 0.650128
37 *169:37 0.145518
38 *169:38 0.044023
39 *169:39 0.108110
40 *577:A 0.021695
41 *169:41 0.013101
42 *169:42 0.070874
43 *169:43 0.070874
44 *549:A0 0.003668
45 *169:45 0.003668
46 *169:46 0.062401
47 *169:47 0.062401
48 *169:48 1.258235
49 *169:49 1.258235
50 *169:50 0.123191
51 *169:51 0.170345
52 *169:52 0.170345

*RES
1 *169:1 *169:2 2.376400
2 *169:4 *169:3 1.096800
3 *169:5 *169:6 0.182800
4 *169:7 *169:8 0.182800
5 *169:9 *169:5 2.376400
6 *169:10 *169:11 3.838800
7 *169:12 *169:13 0.150810
8 *169:14 *376:A 0.182800
9 *169:6 *169:16 4.204400
10 *169:18 *496:B 0.187370
11 *169:19 *169:20 2.924800
12 *169:21 *169:13 0.548400
13 *169:23 *371:A 0.182800
14 *169:25 *463:Q 0.007312
15 *169:21 *369:AN 1.677190
16 *169:28 *169:27 0.182800
17 *169:29 *169:4 0.365600
18 *169:30 *169:23 1.828000
19 *169:32 *169:31 0.365600
20 *169:33 *169:2 0.182800
21 *169:34 *169:14 1.828000
22 *369:AN *169:35 0.356460
23 *169:20 *169:36 8.408800
24 *169:37 *169:38 0.548400
25 *169:39 *169:10 1.279600
26 *169:8 *169:1 7.494800
27 *577:A *169:38 0.370170
28 *169:41 *169:1 0.182800
29 *169:43 *169:42 0.914000
30 *549:A0 *169:45 0.013710
31 *169:47 *169:46 0.731200
32 *169:49 *169:48 20.839200
33 *169:37 *169:50 3.473200
34 *169:51 *169:52 1.645200
35 *169:47 *496:B 2.000000
36 *169:42 *369:AN 2.000000
37 *169:28 *549:A0 2.000000
38 *169:19 *169:4 2.000000
39 *169:33 *169:31 2.000000
40 *169:10 *169:30 2.000000
41 *169:52 *169:27 2.000000
42 *169:9 *169:43 2.000000
43 *169:11 *169:34 2.000000
44 *169:49 *169:50 2.000000
45 *169:29 *463:Q 2.000000
46 *169:7 *169:20 2.000000
47 *169:39 *169:12 2.000000
48 *169:32 *169:46 2.000000
49 *169:16 *169:3 2.000000
50 *169:41 *169:51 2.000000
51 *169:36 *169:48 2.000000
*END

*D_NET *170 10.389649

*CONN
*I *384:AN I *C 10.700 7.700
*I *498:A0 I *C 37.700 16.300
*I *464:Q O *C 29.100 13.492
*I *577:B I *C 3.300 21.895
*I *378:AN I *C 38.700 6.500
*N *170:2 *C 10.700 7.692
*N *170:3 *C 1.700 7.900
*N *170:4 *C 8.100 7.900
*N *170:5 *C 29.300 2.500
*N *170:6 *C 29.300 12.700
*N *170:7 *C 29.700 12.700
*N *170:8 *C 37.500 12.700
*N *170:9 *C 8.100 7.700
*N *170:11 *C 37.700 16.275
*N *170:12 *C 29.100 12.700
*N *170:15 *C 3.300 20.900
*N *170:16 *C 37.500 12.700
*N *170:17 *C 37.500 16.300
*N *170:18 *C 29.300 12.700
*N *170:19 *C 29.100 12.700
*N *170:20 *C 14.500 2.500
*N *170:21 *C 29.300 2.500
*N *170:22 *C 1.700 20.900
*N *170:23 *C 1.700 7.900
*N *170:24 *C 37.500 16.300
*N *170:25 *C 37.700 16.300
*N *170:26 *C 14.500 7.700
*N *170:27 *C 14.500 2.500
*N *170:28 *C 10.700 7.700
*N *170:29 *C 14.500 7.700
*N *170:30 *C 37.900 12.700
*N *170:31 *C 37.900 7.900
*N *170:32 *C 37.900 12.700
*N *170:33 *C 38.700 7.900
*N *170:35 *C 37.900 7.900
*N *170:36 *C 38.700 7.900
*N *170:37 *C 3.300 20.900
*N *170:38 *C 1.700 20.900
*N *170:39 *C 29.700 12.700
*N *170:40 *C 29.700 12.700

*CAP
1 *384:AN 0.008068
2 *170:2 0.008068
3 *170:3 0.368252
4 *170:4 0.377249
5 *170:5 0.609344
6 *170:6 0.609344
7 *170:7 0.679032
8 *170:8 0.713536
9 *170:9 0.186551
10 *498:A0 0.008670
11 *170:11 0.008670
12 *170:12 0.054150
13 *464:Q 0.054150
14 *577:B 0.069716
15 *170:15 0.069716
16 *170:16 0.346065
17 *170:17 0.346065
18 *170:18 0.081604
19 *170:19 0.030602
20 *170:20 0.860295
21 *170:21 0.860295
22 *170:22 0.499165
23 *170:23 0.499165
24 *170:24 0.022695
25 *170:25 0.022695
26 *170:26 0.375337
27 *170:27 0.375337
28 *170:28 0.463202
29 *170:29 0.285648
30 *170:30 0.492443
31 *170:31 0.492443
32 *170:32 0.034503
33 *170:33 0.079192
34 *378:AN 0.079192
35 *170:35 0.068281
36 *170:36 0.068281
37 *170:37 0.065813
38 *170:38 0.065813
39 *170:39 0.051003

*RES
1 *170:2 *384:AN 0.007312
2 *170:3 *170:4 5.849600
3 *170:5 *170:6 9.322800
4 *170:7 *170:8 7.129200
5 *170:9 *170:4 0.182800
6 *170:11 *498:A0 0.022850
7 *170:12 *464:Q 0.723888
8 *170:15 *577:B 0.909430
9 *170:16 *170:17 3.290400
10 *170:19 *170:18 0.182800
11 *170:20 *170:21 13.527200
12 *170:23 *170:22 11.882000
13 *170:24 *170:25 0.182800
14 *170:27 *170:26 4.752800
15 *170:28 *170:29 3.473200
16 *170:31 *170:30 4.387200
17 *170:8 *170:32 0.365600
18 *378:AN *170:33 1.279600
19 *170:35 *170:36 0.731200
20 *170:9 *170:28 2.376400
21 *170:38 *170:37 1.462400
22 *170:18 *170:39 0.365600
23 *170:28 *384:AN 2.000000
24 *170:6 *170:18 2.000000
25 *170:25 *498:A0 2.000000
26 *170:40 *170:39 2.000000
27 *170:19 *170:12 2.000000
28 *170:21 *170:5 2.000000
29 *170:37 *170:15 2.000000
30 *170:31 *170:35 2.000000
31 *170:8 *170:16 2.000000
32 *170:36 *170:33 2.000000
33 *170:17 *170:24 2.000000
34 *170:38 *170:22 2.000000
35 *170:20 *170:27 2.000000
36 *170:3 *170:23 2.000000
37 *170:26 *170:29 2.000000
38 *170:32 *170:30 2.000000
39 *170:7 *170:40 2.000000
*END

*D_NET *171 5.602916

*CONN
*I *465:A I *C 29.500 13.300
*I *466:A I *C 31.300 13.300
*I *577:C I *C 3.500 21.510
*I *468:Q O *C 36.700 13.700
*N *171:1 *C 29.500 13.300
*N *171:2 *C 31.300 13.300
*N *171:3 *C 28.300 23.100
*N *171:4 *C 28.300 13.300
*N *171:6 *C 29.500 13.292
*N *171:7 *C 31.300 13.700
*N *171:9 *C 31.300 13.295
*N *171:10 *C 3.500 21.900
*N *171:11 *C 4.500 21.900
*N *171:12 *C 28.300 13.300
*N *171:13 *C 4.500 23.100
*N *171:14 *C 28.300 23.100
*N *171:16 *C 3.500 21.900
*N *171:18 *C 36.700 13.675
*N *171:19 *C 4.500 21.900
*N *171:20 *C 4.500 23.100
*N *171:21 *C 36.700 13.700

*CAP
1 *171:1 0.231568
2 *171:2 0.147528
3 *171:3 0.618635
4 *171:4 0.618635
5 *465:A 0.010700
6 *171:6 0.010700
7 *171:7 0.410624
8 *466:A 0.007843
9 *171:9 0.007843
10 *171:10 0.083368
11 *171:11 0.083368
12 *171:12 0.099035
13 *171:13 1.263437
14 *171:14 1.263437
15 *577:C 0.048399
16 *171:16 0.048399
17 *468:Q 0.006290
18 *171:18 0.006290
19 *171:19 0.120592
20 *171:20 0.120592
21 *171:21 0.395629

*RES
1 *171:1 *171:2 1.645200
2 *171:4 *171:3 8.957200
3 *171:6 *465:A 0.007312
4 *171:2 *171:7 0.365600
5 *171:9 *466:A 0.004570
6 *171:10 *171:11 0.914000
7 *171:12 *171:1 1.096800
8 *171:13 *171:14 21.753200
9 *577:C *171:16 0.356460
10 *171:18 *468:Q 0.022850
11 *171:19 *171:20 1.096800
12 *171:7 *171:21 4.935600
13 *171:10 *171:16 2.000000
14 *171:13 *171:20 2.000000
15 *171:4 *171:12 2.000000
16 *171:2 *466:A 2.000000
17 *171:14 *171:3 2.000000
18 *171:1 *465:A 2.000000
19 *171:19 *171:11 2.000000
20 *171:21 *468:Q 2.000000
*END

*D_NET *172 7.093062

*CONN
*I *510:B0 I *C 16.300 17.700
*I *395:A I *C 30.500 7.700
*I *506:A I *C 10.100 17.500
*I *390:A I *C 22.700 7.515
*I *465:Y O *C 29.700 13.495
*N *172:1 *C 22.900 14.500
*N *172:2 *C 25.700 14.500
*N *172:3 *C 22.900 16.900
*N *172:4 *C 22.900 14.500
*N *172:5 *C 15.700 20.700
*N *172:6 *C 19.900 20.700
*N *172:7 *C 30.100 7.700
*N *172:8 *C 30.500 7.700
*N *172:9 *C 19.900 20.700
*N *172:10 *C 19.900 19.100
*N *172:11 *C 30.100 13.100
*N *172:12 *C 30.100 7.700
*N *172:14 *C 16.300 17.690
*N *172:16 *C 30.500 7.692
*N *172:17 *C 22.900 12.100
*N *172:18 *C 22.700 12.100
*N *172:19 *C 16.100 17.700
*N *172:20 *C 27.900 13.300
*N *172:21 *C 27.900 13.100
*N *172:23 *C 10.100 16.900
*N *172:24 *C 10.100 16.900
*N *172:25 *C 15.300 16.900
*N *172:27 *C 19.900 19.100
*N *172:28 *C 23.900 19.100
*N *172:29 *C 16.100 18.300
*N *172:30 *C 15.700 18.300
*N *172:31 *C 15.500 17.700
*N *172:32 *C 16.100 17.700
*N *172:33 *C 15.700 20.700
*N *172:34 *C 15.300 16.900
*N *172:35 *C 15.500 16.900
*N *172:36 *C 23.900 16.900
*N *172:37 *C 22.900 16.900
*N *172:38 *C 25.700 13.300
*N *172:39 *C 23.900 19.100
*N *172:40 *C 23.900 16.900
*N *172:41 *C 29.700 13.100
*N *172:42 *C 30.100 13.100
*N *172:43 *C 15.500 17.700
*N *172:44 *C 25.700 14.500
*N *172:45 *C 25.700 13.300
*N *172:46 *C 29.700 13.100

*CAP
1 *172:1 0.230994
2 *172:2 0.230994
3 *172:3 0.221678
4 *172:4 0.378271
5 *172:5 0.332773
6 *172:6 0.332773
7 *172:7 0.041316
8 *172:8 0.041316
9 *172:9 0.130986
10 *172:10 0.130986
11 *172:11 0.339903
12 *172:12 0.339903
13 *510:B0 0.012613
14 *172:14 0.004252
15 *395:A 0.008068
16 *172:16 0.008068
17 *172:17 0.166162
18 *172:18 0.212920
19 *172:19 0.031969
20 *172:20 0.155109
21 *172:21 0.192364
22 *506:A 0.041785
23 *172:23 0.041785
24 *172:24 0.370572
25 *172:25 0.370572
26 *390:A 0.203351
27 *172:27 0.328257
28 *172:28 0.328257
29 *172:29 0.038348
30 *172:30 0.147031
31 *172:31 0.050937
32 *172:32 0.050937
33 *172:33 0.132290
34 *172:34 0.009569
35 *172:35 0.058621
36 *172:36 0.088449
37 *172:37 0.088449
38 *172:38 0.146112
39 *172:39 0.213557
40 *172:40 0.213557
41 *172:41 0.233897
42 *172:42 0.050531
43 *172:43 0.049052
44 *172:44 0.107255
45 *172:45 0.107255
46 *172:46 0.039609
47 *465:Y 0.039609

*RES
1 *172:1 *172:2 2.559200
2 *172:4 *172:3 2.193600
3 *172:5 *172:6 3.838800
4 *172:7 *172:8 0.365600
5 *172:10 *172:9 1.462400
6 *172:12 *172:11 4.935600
7 *172:14 *510:B0 0.009140
8 *172:16 *395:A 0.007312
9 *172:18 *172:17 0.182800
10 *172:19 *510:B0 0.182800
11 *172:21 *172:20 0.182800
12 *172:23 *506:A 0.548400
13 *172:24 *172:25 4.752800
14 *390:A *172:18 4.190690
15 *172:27 *172:28 3.656000
16 *172:30 *172:29 0.365600
17 *172:31 *172:32 0.548400
18 *172:30 *172:33 2.193600
19 *172:34 *172:35 0.182800
20 *172:37 *172:36 0.914000
21 *172:38 *172:20 2.010800
22 *172:19 *172:29 0.548400
23 *172:40 *172:39 2.010800
24 *172:41 *172:42 0.365600
25 *172:35 *172:43 0.731200
26 *172:45 *172:44 1.096800
27 *172:46 *465:Y 0.361030
28 *172:21 *172:41 1.645200
29 *172:17 *172:4 2.193600
30 *172:37 *172:3 2.000000
31 *172:9 *172:6 2.000000
32 *172:32 *172:19 2.000000
33 *172:25 *172:34 2.000000
34 *172:44 *172:2 2.000000
35 *172:11 *172:42 2.000000
36 *172:45 *172:38 2.000000
37 *172:39 *172:28 2.000000
38 *172:1 *172:4 2.000000
39 *172:40 *172:36 2.000000
40 *172:24 *172:23 2.000000
41 *172:12 *172:7 2.000000
42 *172:5 *172:33 2.000000
43 *172:8 *395:A 2.000000
44 *172:10 *172:27 2.000000
45 *172:31 *172:43 2.000000
46 *172:41 *172:46 2.000000
*END

*D_NET *173 0.086344

*CONN
*I *467:A I *C 32.100 13.110
*I *466:Y O *C 31.700 13.700
*N *173:2 *C 31.700 13.110

*CAP
1 *467:A 0.015949
2 *173:2 0.043172
3 *466:Y 0.027223

*RES
1 *173:2 *467:A 0.365600
2 *173:2 *466:Y 0.539260
*END

*D_NET *174 10.131339

*CONN
*I *469:B I *C 37.300 13.700
*I *508:C0 I *C 12.900 17.300
*I *470:Q O *C 7.100 14.500
*I *388:AN I *C 21.100 7.692
*I *509:C0 I *C 13.700 17.300
*I *577:D I *C 3.900 21.685
*N *174:1 *C 12.900 17.000
*N *174:2 *C 12.700 17.000
*N *174:4 *C 37.300 13.495
*N *174:5 *C 3.900 20.100
*N *174:6 *C 3.900 21.685
*N *174:7 *C 17.500 15.100
*N *174:8 *C 17.500 14.900
*N *174:9 *C 6.500 15.700
*N *174:10 *C 12.900 15.700
*N *174:11 *C 17.300 10.500
*N *174:12 *C 21.100 10.500
*N *174:13 *C 2.100 15.700
*N *174:14 *C 2.100 20.100
*N *174:15 *C 3.900 20.100
*N *174:16 *C 12.700 17.100
*N *174:17 *C 12.900 17.100
*N *174:18 *C 12.900 17.300
*N *174:19 *C 13.700 17.300
*N *174:20 *C 33.800 13.700
*N *174:21 *C 33.800 13.900
*N *174:22 *C 17.300 15.100
*N *174:24 *C 33.100 14.900
*N *174:25 *C 33.100 13.700
*N *174:26 *C 12.900 17.500
*N *174:27 *C 6.500 14.500
*N *174:28 *C 6.500 15.700
*N *174:29 *C 2.100 15.700
*N *174:30 *C 2.100 20.100
*N *174:31 *C 37.300 13.900
*N *174:32 *C 37.300 13.700
*N *174:34 *C 12.900 15.500
*N *174:35 *C 17.300 15.500
*N *174:36 *C 21.100 10.500
*N *174:38 *C 17.300 15.100
*N *174:39 *C 17.300 10.500
*N *174:40 *C 17.300 15.500
*N *174:41 *C 33.100 13.700
*N *174:42 *C 37.300 13.900
*N *174:43 *C 33.100 14.900
*N *174:44 *C 12.900 15.700
*N *174:46 *C 3.900 21.685
*N *174:48 *C 37.300 13.700

*CAP
1 *174:1 0.080051
2 *174:2 0.024848
3 *469:B 0.020072
4 *174:4 0.020072
5 *174:5 0.088107
6 *174:6 0.088107
7 *174:7 0.038803
8 *174:8 1.689981
9 *174:9 0.778508
10 *174:10 0.458367
11 *174:11 0.332898
12 *174:12 0.332898
13 *174:13 0.329139
14 *174:14 0.160387
15 *174:15 0.160387
16 *174:16 0.022522
17 *174:17 0.033796
18 *174:18 0.065294
19 *174:19 0.065294
20 *174:20 0.063626
21 *174:21 0.328495
22 *174:22 0.025936
23 *508:C0 0.043447
24 *174:24 0.132479
25 *174:25 0.132479
26 *174:26 0.022188
27 *174:27 0.092149
28 *174:28 0.069200
29 *174:29 0.200129
30 *174:30 0.200129
31 *174:31 0.030572
32 *174:32 0.030572
33 *470:Q 0.022950
34 *174:34 0.377857
35 *174:35 0.368860
36 *174:36 0.134857
37 *388:AN 0.134857
38 *174:38 0.411402
39 *174:39 0.372479
40 *174:40 0.038922
41 *174:41 0.050525
42 *174:42 0.315393
43 *174:43 1.677113
44 *174:44 0.065190

*RES
1 *174:2 *174:1 0.182800
2 *174:4 *469:B 0.187370
3 *174:5 *174:6 1.448690
4 *174:8 *174:7 0.182800
5 *174:9 *174:10 5.849600
6 *174:11 *174:12 3.473200
7 *174:13 *174:9 4.021600
8 *174:14 *174:15 1.645200
9 *174:16 *174:17 0.182800
10 *174:18 *174:19 0.731200
11 *174:20 *174:21 0.182800
12 *174:22 *174:7 0.182800
13 *174:17 *508:C0 0.182800
14 *174:2 *174:16 0.091400
15 *174:25 *174:24 1.096800
16 *508:C0 *174:26 0.182800
17 *174:27 *174:28 1.096800
18 *174:29 *174:30 4.021600
19 *174:32 *174:31 0.182800
20 *174:27 *470:Q 0.548400
21 *174:34 *174:35 4.021600
22 *388:AN *174:36 2.566512
23 *174:39 *174:38 4.204400
24 *174:38 *174:40 0.365600
25 *174:41 *174:20 0.639800
26 *174:21 *174:42 3.199000
27 *174:8 *174:43 14.258400
28 *174:44 *174:1 1.188200
29 *174:34 *174:10 0.182800
30 *174:13 *174:29 2.000000
31 *174:19 *509:C0 2.000000
32 *174:12 *174:36 2.000000
33 *174:42 *174:31 2.000000
34 *174:46 *577:D 2.000000
35 *174:6 *174:46 2.000000
36 *174:18 *508:C0 2.000000
37 *174:22 *174:38 2.000000
38 *174:5 *174:15 2.000000
39 *174:39 *174:11 2.000000
40 *174:41 *174:25 2.000000
41 *174:40 *174:35 2.000000
42 *174:10 *174:44 2.000000
43 *174:43 *174:24 2.000000
44 *174:14 *174:30 2.000000
45 *174:48 *469:B 2.000000
46 *174:9 *174:28 2.000000
47 *174:32 *174:48 2.000000
*END

*D_NET *175 8.348213

*CONN
*I *401:AN I *C 7.500 9.125
*I *514:B I *C 22.100 17.500
*I *576:D I *C 40.500 20.300
*I *402:AN I *C 8.500 9.100
*I *471:Q O *C 11.500 14.500
*N *175:1 *C 14.500 14.500
*N *175:2 *C 20.700 14.500
*N *175:4 *C 7.500 9.100
*N *175:5 *C 21.900 19.900
*N *175:6 *C 21.900 21.700
*N *175:7 *C 8.100 14.500
*N *175:8 *C 11.500 14.500
*N *175:10 *C 22.100 19.900
*N *175:11 *C 12.900 14.700
*N *175:12 *C 14.500 14.700
*N *175:13 *C 12.900 14.500
*N *175:14 *C 22.100 17.300
*N *175:15 *C 21.300 17.300
*N *175:16 *C 22.100 17.300
*N *175:17 *C 20.700 14.500
*N *175:18 *C 20.700 16.900
*N *175:19 *C 21.900 21.700
*N *175:20 *C 40.300 21.700
*N *175:21 *C 14.500 14.700
*N *175:22 *C 14.500 14.500
*N *175:23 *C 8.100 9.100
*N *175:24 *C 8.500 9.100
*N *175:25 *C 20.700 16.900
*N *175:26 *C 21.300 16.900
*N *175:28 *C 40.500 20.100
*N *175:29 *C 40.300 21.700
*N *175:30 *C 40.300 20.300
*N *175:31 *C 21.300 16.900
*N *175:32 *C 21.300 17.300
*N *175:33 *C 8.100 9.100
*N *175:34 *C 8.100 14.500
*N *175:35 *C 7.500 9.100

*CAP
1 *175:1 0.697890
2 *175:2 0.697890
3 *401:AN 0.009234
4 *175:4 0.009234
5 *175:5 0.119198
6 *175:6 0.109629
7 *175:7 0.261831
8 *175:8 0.379005
9 *514:B 0.179413
10 *175:10 0.168735
11 *175:11 0.165509
12 *175:12 0.156512
13 *175:13 0.126171
14 *175:14 0.020247
15 *175:15 0.064689
16 *175:16 0.064689
17 *175:17 0.202156
18 *175:18 0.202156
19 *175:19 1.513034
20 *175:20 1.513034
21 *175:21 0.030572
22 *175:22 0.030572
23 *175:23 0.103275
24 *175:24 0.051003
25 *175:25 0.064171
26 *175:26 0.064171
27 *576:D 0.032154
28 *175:28 0.022371
29 *175:29 0.080089
30 *175:30 0.089873
31 *175:31 0.044663
32 *175:32 0.044663
33 *175:33 0.489052
34 *175:34 0.489052
35 *175:35 0.052273

*RES
1 *175:1 *175:2 5.666800
2 *175:4 *401:AN 0.022850
3 *175:5 *175:6 1.645200
4 *175:7 *175:8 3.107600
5 *514:B *175:10 2.193600
6 *175:11 *175:12 1.462400
7 *175:13 *175:11 0.182800
8 *175:14 *514:B 0.182800
9 *175:15 *175:16 0.731200
10 *175:8 *175:13 1.279600
11 *175:17 *175:18 2.193600
12 *175:19 *175:20 16.817600
13 *175:22 *175:21 0.182800
14 *175:23 *175:24 0.365600
15 *175:25 *175:26 0.548400
16 *175:28 *576:D 0.182800
17 *175:30 *175:29 1.279600
18 *175:31 *175:32 0.365600
19 *175:30 *576:D 0.182800
20 *175:33 *175:34 4.935600
21 *175:35 *175:23 0.548400
22 *175:5 *175:10 0.182800
23 *175:34 *175:7 2.000000
24 *175:33 *175:23 2.000000
25 *175:19 *175:6 2.000000
26 *175:18 *175:25 2.000000
27 *175:1 *175:22 2.000000
28 *175:24 *402:AN 2.000000
29 *175:15 *175:32 2.000000
30 *175:35 *175:4 2.000000
31 *175:8 *471:Q 2.000000
32 *175:21 *175:12 2.000000
33 *175:20 *175:29 2.000000
34 *175:16 *175:14 2.000000
35 *175:2 *175:17 2.000000
36 *175:26 *175:31 2.000000
*END

*D_NET *176 10.243539

*CONN
*I *421:AN I *C 37.700 9.490
*I *423:AN I *C 3.100 10.492
*I *418:B0 I *C 34.900 9.290
*I *574:A I *C 36.700 20.485
*I *472:Q O *C 15.900 14.500
*I *516:B I *C 26.700 17.500
*N *176:1 *C 15.700 14.500
*N *176:2 *C 15.900 14.500
*N *176:3 *C 34.300 15.500
*N *176:4 *C 34.300 17.500
*N *176:5 *C 28.500 16.700
*N *176:6 *C 25.700 16.700
*N *176:7 *C 34.300 15.500
*N *176:8 *C 28.500 15.500
*N *176:9 *C 36.100 17.500
*N *176:10 *C 36.100 20.485
*N *176:11 *C 34.300 11.500
*N *176:12 *C 34.300 10.900
*N *176:13 *C 34.700 10.900
*N *176:14 *C 37.900 11.500
*N *176:15 *C 34.300 11.500
*N *176:17 *C 37.900 9.490
*N *176:18 *C 15.700 15.500
*N *176:19 *C 25.700 17.500
*N *176:20 *C 26.700 17.500
*N *176:21 *C 3.100 10.900
*N *176:23 *C 34.700 10.900
*N *176:24 *C 34.700 9.900
*N *176:25 *C 6.700 10.900
*N *176:26 *C 3.100 10.900
*N *176:27 *C 28.500 15.500
*N *176:28 *C 28.500 16.700
*N *176:29 *C 15.700 15.500
*N *176:30 *C 15.700 14.500
*N *176:31 *C 34.900 9.900
*N *176:33 *C 25.700 16.700
*N *176:34 *C 25.700 17.500
*N *176:35 *C 37.900 11.500
*N *176:36 *C 36.100 20.485
*N *176:37 *C 36.700 20.485
*N *176:38 *C 34.300 10.900
*N *176:39 *C 6.700 15.500
*N *176:40 *C 6.700 10.900
*N *176:41 *C 6.700 15.500
*N *176:42 *C 34.300 17.500
*N *176:43 *C 36.100 17.500

*CAP
1 *176:1 0.022277
2 *176:2 0.022277
3 *176:3 0.503769
4 *176:4 0.185513
5 *176:5 0.317638
6 *176:6 0.317638
7 *176:7 0.410856
8 *176:8 1.561226
9 *176:9 0.247385
10 *176:10 0.247385
11 *176:11 0.367219
12 *176:12 0.030698
13 *176:13 0.030698
14 *176:14 0.211322
15 *176:15 0.211322
16 *421:AN 0.009569
17 *176:17 0.146801
18 *176:18 1.822502
19 *176:19 0.109847
20 *176:20 0.109847
21 *176:21 0.019815
22 *423:AN 0.019815
23 *176:23 0.044983
24 *176:24 0.054552
25 *176:25 0.257666
26 *176:26 0.257666
27 *176:27 0.130887
28 *176:28 0.130887
29 *176:29 0.071371
30 *176:30 0.071371
31 *176:31 0.047186
32 *418:B0 0.037617
33 *176:33 0.091716
34 *176:34 0.091716
35 *176:35 0.137232
36 *176:36 0.049486
37 *176:37 0.049486
38 *176:38 0.048963
39 *176:39 0.362633
40 *176:40 0.362633
41 *176:41 0.672132
42 *176:42 0.173970
43 *176:43 0.173970

*RES
1 *176:1 *176:2 0.182800
2 *176:3 *176:4 1.828000
3 *176:6 *176:5 2.559200
4 *176:8 *176:7 5.301200
5 *176:9 *176:10 2.728290
6 *176:11 *176:3 3.656000
7 *176:12 *176:13 0.365600
8 *176:15 *176:14 3.290400
9 *421:AN *176:17 0.182800
10 *176:18 *176:8 11.699200
11 *176:19 *176:20 0.914000
12 *423:AN *176:21 0.372912
13 *176:24 *176:23 0.914000
14 *176:26 *176:25 3.290400
15 *176:27 *176:28 1.096800
16 *176:30 *176:29 0.914000
17 *418:B0 *176:31 0.557540
18 *176:33 *176:34 0.731200
19 *176:17 *176:35 1.837140
20 *176:36 *176:37 0.548400
21 *176:38 *176:11 0.548400
22 *176:40 *176:39 4.204400
23 *176:41 *176:18 8.226000
24 *176:42 *176:43 1.645200
25 *176:24 *176:31 0.182800
26 *176:5 *176:28 2.000000
27 *176:10 *176:36 2.000000
28 *176:14 *176:35 2.000000
29 *176:41 *176:39 2.000000
30 *176:37 *574:A 2.000000
31 *176:8 *176:27 2.000000
32 *176:11 *176:15 2.000000
33 *176:26 *176:21 2.000000
34 *176:13 *176:23 2.000000
35 *176:18 *176:29 2.000000
36 *176:42 *176:4 2.000000
37 *176:30 *176:1 2.000000
38 *176:40 *176:25 2.000000
39 *176:2 *472:Q 2.000000
40 *176:20 *516:B 2.000000
41 *176:6 *176:33 2.000000
42 *176:43 *176:9 2.000000
43 *176:38 *176:12 2.000000
44 *176:7 *176:3 2.000000
45 *176:34 *176:19 2.000000
*END

*D_NET *177 6.732347

*CONN
*I *414:AN I *C 29.700 9.100
*I *519:A I *C 29.700 17.300
*I *409:B I *C 23.700 9.100
*I *473:Q O *C 20.300 14.500
*I *574:B I *C 37.100 19.925
*N *177:1 *C 35.900 19.925
*N *177:2 *C 37.100 19.925
*N *177:3 *C 23.700 10.500
*N *177:4 *C 24.700 10.500
*N *177:5 *C 30.900 17.100
*N *177:6 *C 30.300 17.100
*N *177:7 *C 30.900 17.100
*N *177:8 *C 30.900 20.900
*N *177:9 *C 34.700 20.700
*N *177:10 *C 35.900 20.700
*N *177:11 *C 35.900 20.700
*N *177:12 *C 35.900 19.925
*N *177:13 *C 24.700 10.500
*N *177:14 *C 24.700 10.300
*N *177:15 *C 34.700 20.900
*N *177:16 *C 24.700 10.300
*N *177:17 *C 27.900 10.300
*N *177:18 *C 23.700 14.100
*N *177:19 *C 23.700 10.500
*N *177:20 *C 29.700 9.500
*N *177:21 *C 30.900 9.500
*N *177:22 *C 29.700 9.700
*N *177:25 *C 29.700 17.685
*N *177:26 *C 30.300 17.300
*N *177:27 *C 30.900 20.900
*N *177:28 *C 30.900 9.500
*N *177:31 *C 20.300 14.100
*N *177:32 *C 27.900 9.700
*N *177:33 *C 29.700 9.700
*N *177:34 *C 29.700 17.300
*N *177:35 *C 20.300 14.100
*N *177:36 *C 23.700 14.100
*N *177:37 *C 27.900 10.300
*N *177:38 *C 27.900 9.700

*CAP
1 *177:1 0.088195
2 *177:2 0.088195
3 *177:3 0.106524
4 *177:4 0.106524
5 *177:5 0.043974
6 *177:6 0.053045
7 *177:7 1.039419
8 *177:8 0.323939
9 *177:9 0.102591
10 *177:10 0.091077
11 *177:11 0.084045
12 *177:12 0.084045
13 *177:13 0.030094
14 *177:14 0.030094
15 *177:15 0.426325
16 *177:16 0.300835
17 *177:17 0.300835
18 *177:18 0.266474
19 *177:19 0.390178
20 *177:20 0.109756
21 *177:21 0.098793
22 *177:22 0.048551
23 *414:AN 0.048551
24 *519:A 0.042109
25 *177:25 0.042109
26 *177:26 0.066121
27 *177:27 0.414811
28 *177:28 0.715480
29 *409:B 0.123704
30 *473:Q 0.034679
31 *177:31 0.034679
32 *177:32 0.176925
33 *177:33 0.187888
34 *177:34 0.057050
35 *177:35 0.236433
36 *177:36 0.236433
37 *177:37 0.050935
38 *177:38 0.050935

*RES
1 *177:1 *177:2 1.096800
2 *177:3 *177:4 0.914000
3 *177:6 *177:5 0.548400
4 *177:7 *177:8 3.473200
5 *177:9 *177:10 1.096800
6 *177:12 *177:11 0.708350
7 *177:14 *177:13 0.182800
8 *177:9 *177:15 0.182800
9 *177:16 *177:17 2.924800
10 *177:19 *177:18 3.290400
11 *177:20 *177:21 1.096800
12 *414:AN *177:22 0.548400
13 *519:A *177:25 0.351890
14 *177:6 *177:26 0.182800
15 *177:27 *177:15 3.473200
16 *177:28 *177:7 6.946400
17 *409:B *177:19 1.279600
18 *177:31 *473:Q 0.365600
19 *177:32 *177:33 1.645200
20 *177:34 *177:26 0.548400
21 *177:35 *177:36 3.107600
22 *177:20 *177:33 0.182800
23 *177:38 *177:37 0.548400
24 *177:34 *519:A 2.000000
25 *177:17 *177:37 2.000000
26 *177:36 *177:18 2.000000
27 *177:38 *177:32 2.000000
28 *177:35 *177:31 2.000000
29 *177:3 *177:19 2.000000
30 *177:13 *177:4 2.000000
31 *177:12 *177:1 2.000000
32 *177:27 *177:8 2.000000
33 *177:28 *177:21 2.000000
34 *177:7 *177:5 2.000000
35 *177:2 *574:B 2.000000
36 *177:33 *177:22 2.000000
37 *177:16 *177:14 2.000000
38 *177:10 *177:11 2.000000
*END

*D_NET *178 6.338539

*CONN
*I *439:AN I *C 37.700 10.500
*I *434:A I *C 29.700 10.495
*I *474:Q O *C 24.700 14.700
*I *413:B0 I *C 29.100 9.100
*I *523:A I *C 33.500 17.500
*I *574:C I *C 37.300 20.300
*N *178:2 *C 37.700 10.110
*N *178:3 *C 33.100 17.500
*N *178:4 *C 33.500 17.500
*N *178:5 *C 33.100 17.500
*N *178:6 *C 33.100 17.700
*N *178:7 *C 31.700 14.500
*N *178:8 *C 31.700 15.900
*N *178:9 *C 32.100 15.900
*N *178:10 *C 32.100 17.500
*N *178:11 *C 37.300 14.300
*N *178:12 *C 37.100 14.300
*N *178:14 *C 29.700 10.700
*N *178:15 *C 32.100 17.500
*N *178:16 *C 37.300 17.700
*N *178:18 *C 24.700 14.500
*N *178:19 *C 37.100 10.500
*N *178:20 *C 37.700 10.500
*N *178:21 *C 31.700 14.500
*N *178:22 *C 24.700 14.500
*N *178:23 *C 29.700 10.700
*N *178:24 *C 31.700 10.700
*N *178:25 *C 29.100 10.495
*N *178:27 *C 37.300 20.300
*N *178:28 *C 33.100 17.700
*N *178:29 *C 37.300 17.700
*N *178:30 *C 31.700 15.900
*N *178:31 *C 32.100 15.900
*N *178:32 *C 37.100 10.500
*N *178:33 *C 24.700 14.500
*N *178:34 *C 24.700 14.700
*N *178:35 *C 31.700 10.700
*N *178:36 *C 37.300 20.300
*N *178:37 *C 24.700 14.700

*CAP
1 *439:AN 0.048548
2 *178:2 0.048548
3 *178:3 0.149373
4 *178:4 0.045042
5 *178:5 0.030572
6 *178:6 0.030572
7 *178:7 0.434335
8 *178:8 0.124183
9 *178:9 0.108843
10 *178:10 0.108843
11 *178:11 0.302954
12 *178:12 0.260813
13 *434:A 0.043752
14 *178:14 0.019370
15 *178:15 0.104331
16 *178:16 0.546583
17 *474:Q 0.029723
18 *178:18 0.029723
19 *178:19 0.055363
20 *178:20 0.055363
21 *178:21 0.782300
22 *178:22 0.782300
23 *178:23 0.201158
24 *178:24 0.201158
25 *178:25 0.089614
26 *413:B0 0.065232
27 *178:27 0.256243
28 *178:28 0.336472
29 *178:29 0.336472
30 *178:30 0.051003
31 *178:31 0.051003
32 *178:32 0.248199
33 *178:33 0.025200
34 *178:34 0.025200
35 *178:35 0.310152

*RES
1 *178:2 *439:AN 0.356460
2 *178:3 *178:4 0.365600
3 *178:5 *178:6 0.182800
4 *178:7 *178:8 1.279600
5 *178:9 *178:10 1.462400
6 *178:12 *178:11 0.182800
7 *434:A *178:14 0.187370
8 *178:15 *178:3 0.914000
9 *178:11 *178:16 3.107600
10 *178:18 *474:Q 0.182800
11 *178:19 *178:20 0.548400
12 *178:22 *178:21 6.398000
13 *178:23 *178:24 1.828000
14 *413:B0 *178:25 1.275030
15 *178:16 *178:27 2.376400
16 *178:28 *178:29 3.838800
17 *178:25 *434:A 0.548400
18 *178:30 *178:31 0.365600
19 *178:32 *178:12 3.473200
20 *178:33 *178:34 0.182800
21 *178:35 *178:7 3.473200
22 *178:31 *178:9 2.000000
23 *178:27 *178:36 2.000000
24 *178:32 *178:19 2.000000
25 *178:34 *178:37 2.000000
26 *178:4 *523:A 2.000000
27 *178:20 *439:AN 2.000000
28 *178:23 *178:14 2.000000
29 *178:15 *178:10 2.000000
30 *178:5 *178:3 2.000000
31 *178:21 *178:7 2.000000
32 *178:37 *474:Q 2.000000
33 *178:36 *574:C 2.000000
34 *178:22 *178:33 2.000000
35 *178:28 *178:6 2.000000
36 *178:35 *178:24 2.000000
37 *178:8 *178:30 2.000000
38 *178:29 *178:16 2.000000
*END

*D_NET *179 4.625820

*CONN
*I *475:Q O *C 29.100 14.500
*I *575:A I *C 38.100 20.100
*I *440:AN I *C 38.700 10.300
*I *432:B I *C 24.700 10.492
*I *526:B I *C 38.900 17.500
*N *179:2 *C 29.300 14.500
*N *179:3 *C 29.300 12.900
*N *179:4 *C 31.900 12.900
*N *179:6 *C 38.100 20.300
*N *179:7 *C 29.300 12.900
*N *179:8 *C 39.100 10.500
*N *179:9 *C 39.100 17.500
*N *179:10 *C 39.100 20.100
*N *179:11 *C 31.900 10.500
*N *179:12 *C 38.700 10.500
*N *179:13 *C 39.100 17.500
*N *179:14 *C 38.900 17.500
*N *179:16 *C 38.700 10.292
*N *179:17 *C 39.100 20.100
*N *179:18 *C 38.100 20.100
*N *179:19 *C 24.700 12.900
*N *179:20 *C 31.900 12.900
*N *179:21 *C 31.900 10.500
*N *179:22 *C 24.700 12.900
*N *179:24 *C 38.700 10.500
*N *179:25 *C 38.700 10.300
*N *179:27 *C 38.700 10.300

*CAP
1 *475:Q 0.009569
2 *179:2 0.100481
3 *179:3 0.556760
4 *179:4 0.238051
5 *575:A 0.021342
6 *179:6 0.021342
7 *179:7 0.090912
8 *179:8 0.511701
9 *179:9 0.653815
10 *179:10 0.158676
11 *179:11 0.470418
12 *179:12 0.470418
13 *179:13 0.023727
14 *179:14 0.023727
15 *440:AN 0.004844
16 *179:16 0.004844
17 *179:17 0.090805
18 *179:18 0.090805
19 *179:19 0.318709
20 *179:20 0.244024
21 *179:21 0.244024
22 *179:22 0.110642
23 *432:B 0.110642
24 *179:24 0.036054
25 *179:25 0.019492

*RES
1 *475:Q *179:2 0.182800
2 *179:3 *179:4 2.376400
3 *575:A *179:6 0.182800
4 *179:7 *179:2 1.462400
5 *179:8 *179:9 6.398000
6 *179:9 *179:10 2.376400
7 *179:11 *179:12 6.215200
8 *179:14 *179:13 0.182800
9 *179:16 *440:AN 0.007312
10 *179:18 *179:17 0.914000
11 *179:19 *179:3 4.204400
12 *179:21 *179:20 2.193600
13 *432:B *179:22 2.200912
14 *179:25 *179:24 0.182800
15 *179:24 *179:8 0.365600
16 *179:14 *526:B 2.000000
17 *179:3 *179:7 2.000000
18 *179:27 *440:AN 2.000000
19 *179:12 *179:24 2.000000
20 *179:11 *179:21 2.000000
21 *179:18 *575:A 2.000000
22 *179:10 *179:17 2.000000
23 *179:9 *179:13 2.000000
24 *179:19 *179:22 2.000000
25 *179:20 *179:4 2.000000
26 *179:25 *179:27 2.000000
*END

*D_NET *180 8.407509

*CONN
*I *443:B I *C 8.900 11.900
*I *442:AN I *C 7.500 12.300
*I *575:B I *C 38.500 20.100
*I *528:B I *C 6.500 18.895
*I *476:Q O *C 33.500 14.500
*N *180:1 *C 7.100 13.100
*N *180:2 *C 7.500 13.100
*N *180:3 *C 38.300 19.500
*N *180:4 *C 38.500 19.500
*N *180:5 *C 13.900 14.700
*N *180:6 *C 33.500 14.700
*N *180:7 *C 7.100 14.500
*N *180:8 *C 13.900 14.500
*N *180:9 *C 7.500 12.300
*N *180:10 *C 38.300 14.700
*N *180:11 *C 38.300 19.500
*N *180:12 *C 8.900 12.300
*N *180:15 *C 7.500 12.290
*N *180:16 *C 7.100 14.500
*N *180:17 *C 7.100 13.100
*N *180:18 *C 38.500 19.500
*N *180:20 *C 7.100 18.892
*N *180:21 *C 33.500 14.700
*N *180:22 *C 33.500 14.500
*N *180:23 *C 8.900 12.300
*N *180:24 *C 38.300 14.700
*N *180:26 *C 6.500 18.892
*N *180:27 *C 6.500 18.892
*N *180:28 *C 7.100 18.892
*N *180:29 *C 33.500 14.500

*CAP
1 *180:1 0.025834
2 *180:2 0.052826
3 *180:3 0.021998
4 *180:4 0.021998
5 *180:5 2.036426
6 *180:6 2.357624
7 *180:7 0.543577
8 *180:8 0.556679
9 *180:9 0.133854
10 *180:10 0.444110
11 *180:11 0.444110
12 *180:12 0.024154
13 *443:B 0.024154
14 *442:AN 0.005454
15 *180:15 0.005454
16 *180:16 0.489273
17 *180:17 0.122505
18 *180:18 0.049085
19 *575:B 0.049085
20 *180:20 0.366768
21 *180:21 0.025200
22 *180:22 0.025200
23 *180:23 0.106862
24 *180:24 0.334300
25 *528:B 0.007144
26 *180:26 0.007144
27 *180:27 0.063346
28 *180:28 0.063346

*RES
1 *180:1 *180:2 0.365600
2 *180:3 *180:4 0.182800
3 *180:5 *180:6 17.914400
4 *180:7 *180:8 6.215200
5 *180:9 *180:2 0.731200
6 *180:8 *180:5 0.182800
7 *180:10 *180:11 4.387200
8 *443:B *180:12 0.365600
9 *180:15 *442:AN 0.009140
10 *180:17 *180:16 1.279600
11 *180:18 *575:B 0.548400
12 *180:16 *180:20 4.014288
13 *180:22 *180:21 0.182800
14 *180:9 *180:23 1.279600
15 *180:6 *180:24 4.387200
16 *180:26 *528:B 0.002742
17 *180:27 *180:28 0.548400
18 *180:6 *180:21 2.000000
19 *180:9 *442:AN 2.000000
20 *180:29 *476:Q 2.000000
21 *180:4 *180:18 2.000000
22 *180:27 *180:26 2.000000
23 *180:11 *180:3 2.000000
24 *180:22 *180:29 2.000000
25 *180:20 *180:28 2.000000
26 *180:7 *180:16 2.000000
27 *180:17 *180:1 2.000000
28 *180:24 *180:10 2.000000
29 *180:23 *180:12 2.000000
*END

*D_NET *181 8.691243

*CONN
*I *445:A I *C 10.500 12.100
*I *429:A I *C 12.300 10.500
*I *531:A I *C 9.500 18.715
*I *575:C I *C 38.700 20.300
*I *451:A I *C 20.300 11.900
*I *477:Q O *C 37.900 14.500
*N *181:1 *C 39.300 15.500
*N *181:2 *C 39.300 18.300
*N *181:4 *C 10.500 12.090
*N *181:5 *C 20.100 10.300
*N *181:6 *C 20.100 10.500
*N *181:7 *C 9.700 18.100
*N *181:8 *C 9.700 13.500
*N *181:9 *C 31.300 10.500
*N *181:10 *C 31.300 15.500
*N *181:11 *C 20.100 10.700
*N *181:12 *C 20.300 10.700
*N *181:13 *C 9.700 13.500
*N *181:14 *C 10.300 13.500
*N *181:15 *C 39.300 18.300
*N *181:16 *C 38.700 18.300
*N *181:17 *C 20.100 10.300
*N *181:18 *C 20.100 10.700
*N *181:19 *C 16.100 10.100
*N *181:20 *C 16.100 10.300
*N *181:21 *C 14.900 10.100
*N *181:22 *C 12.300 13.100
*N *181:24 *C 12.300 10.495
*N *181:25 *C 10.300 13.100
*N *181:26 *C 31.300 15.500
*N *181:27 *C 39.300 15.500
*N *181:28 *C 12.300 10.500
*N *181:29 *C 14.900 10.500
*N *181:30 *C 14.900 10.500
*N *181:31 *C 14.900 10.100
*N *181:32 *C 10.300 13.100
*N *181:33 *C 10.300 12.100
*N *181:34 *C 39.300 14.500
*N *181:36 *C 9.500 18.100
*N *181:37 *C 38.700 18.300
*N *181:39 *C 31.300 10.500
*N *181:40 *C 39.300 14.500
*N *181:41 *C 37.900 14.500
*N *181:42 *C 10.300 12.100
*N *181:43 *C 12.300 13.100
*N *181:44 *C 20.300 10.700
*N *181:46 *C 10.300 12.100

*CAP
1 *181:1 0.401896
2 *181:2 0.292346
3 *445:A 0.015583
4 *181:4 0.004557
5 *181:5 0.309225
6 *181:6 0.987408
7 *181:7 0.200714
8 *181:8 0.189303
9 *181:9 0.428403
10 *181:10 0.428403
11 *181:11 0.030601
12 *181:12 0.030601
13 *181:13 0.048374
14 *181:14 0.063370
15 *181:15 0.054887
16 *181:16 0.054887
17 *181:17 0.042000
18 *181:18 0.042000
19 *181:19 0.111414
20 *181:20 0.309225
21 *181:21 0.098313
22 *181:22 0.120003
23 *429:A 0.124538
24 *181:24 0.004535
25 *181:25 0.185408
26 *181:26 0.714502
27 *181:27 0.714502
28 *181:28 0.207084
29 *181:29 0.207084
30 *181:30 0.050953
31 *181:31 0.050953
32 *181:32 0.098637
33 *181:33 0.098637
34 *181:34 0.109550
35 *531:A 0.039875
36 *181:36 0.051286
37 *181:37 0.152079
38 *575:C 0.152079
39 *181:39 0.974306
40 *181:40 0.077493
41 *181:41 0.077493
42 *181:42 0.011025
43 *181:43 0.170413
44 *181:44 0.077646
45 *451:A 0.077646

*RES
1 *181:1 *181:2 2.559200
2 *181:4 *445:A 0.009140
3 *181:5 *181:6 0.182800
4 *181:8 *181:7 4.204400
5 *181:9 *181:10 4.570000
6 *181:11 *181:12 0.182800
7 *181:13 *181:14 0.548400
8 *181:16 *181:15 0.548400
9 *181:17 *181:18 0.365600
10 *181:19 *181:20 0.182800
11 *181:21 *181:19 1.096800
12 *429:A *181:22 2.376400
13 *181:24 *429:A 0.004570
14 *181:25 *181:14 0.365600
15 *181:26 *181:27 7.312000
16 *181:28 *181:29 2.376400
17 *181:20 *181:5 3.656000
18 *181:31 *181:30 0.365600
19 *181:33 *181:32 0.914000
20 *181:34 *181:1 0.914000
21 *181:36 *531:A 0.562110
22 *181:37 *575:C 1.828000
23 *181:36 *181:7 0.182800
24 *181:6 *181:39 10.236800
25 *181:41 *181:40 1.279600
26 *181:42 *445:A 0.182800
27 *181:25 *181:43 1.828000
28 *181:44 *451:A 1.096800
29 *181:46 *181:42 2.000000
30 *181:16 *181:37 2.000000
31 *181:2 *181:15 2.000000
32 *181:28 *429:A 2.000000
33 *181:34 *181:40 2.000000
34 *181:1 *181:27 2.000000
35 *181:41 *477:Q 2.000000
36 *181:13 *181:8 2.000000
37 *181:43 *181:22 2.000000
38 *181:32 *181:25 2.000000
39 *181:33 *181:46 2.000000
40 *181:10 *181:26 2.000000
41 *181:21 *181:31 2.000000
42 *181:18 *181:11 2.000000
43 *181:5 *181:17 2.000000
44 *181:12 *181:44 2.000000
45 *181:30 *181:29 2.000000
46 *181:39 *181:9 2.000000
*END

*D_NET *182 13.801806

*CONN
*I *360:A I *C 9.700 6.300
*I *356:A I *C 3.100 6.300
*I *535:A I *C 13.300 18.715
*I *575:D I *C 39.100 20.100
*I *478:A0 I *C 38.100 14.900
*I *481:Q O *C 10.100 16.300
*I *350:AN I *C 33.500 4.700
*N *182:1 *C 13.300 25.700
*N *182:2 *C 33.700 25.700
*N *182:3 *C 9.900 16.300
*N *182:4 *C 10.100 16.300
*N *182:5 *C 9.900 7.900
*N *182:6 *C 9.900 16.300
*N *182:7 *C 9.700 6.700
*N *182:9 *C 33.300 15.700
*N *182:10 *C 33.300 4.700
*N *182:11 *C 33.700 16.900
*N *182:12 *C 33.100 16.900
*N *182:13 *C 38.900 14.900
*N *182:14 *C 38.100 14.900
*N *182:15 *C 33.300 15.700
*N *182:16 *C 38.900 15.700
*N *182:17 *C 6.100 7.100
*N *182:18 *C 6.100 6.700
*N *182:19 *C 14.100 16.300
*N *182:20 *C 33.300 4.700
*N *182:21 *C 33.500 4.700
*N *182:22 *C 9.700 6.700
*N *182:23 *C 9.500 6.700
*N *182:24 *C 33.100 16.900
*N *182:25 *C 33.100 15.700
*N *182:26 *C 33.700 25.700
*N *182:27 *C 33.700 16.900
*N *182:29 *C 3.100 7.100
*N *182:30 *C 9.500 7.900
*N *182:31 *C 9.900 7.900
*N *182:32 *C 38.900 15.700
*N *182:33 *C 38.900 17.300
*N *182:34 *C 14.100 16.300
*N *182:35 *C 14.100 18.100
*N *182:36 *C 13.300 18.500
*N *182:38 *C 39.100 17.300
*N *182:40 *C 38.900 14.900
*N *182:41 *C 13.300 25.700
*N *182:42 *C 38.900 17.300
*N *182:43 *C 39.100 17.300
*N *182:44 *C 13.500 18.100
*N *182:45 *C 13.500 18.500
*N *182:47 *C 38.100 14.700
*N *182:49 *C 10.100 16.292
*N *182:51 *C 33.500 4.692
*N *182:52 *C 3.100 7.100
*N *182:53 *C 9.500 7.900

*CAP
1 *182:1 2.030247
2 *182:2 2.030247
3 *182:3 0.030249
4 *182:4 0.424650
5 *182:5 0.589648
6 *182:6 0.589648
7 *182:7 0.028534
8 *360:A 0.018965
9 *182:9 0.737553
10 *182:10 0.724939
11 *182:11 0.051980
12 *182:12 0.051980
13 *182:13 0.075532
14 *182:14 0.075532
15 *182:15 0.419652
16 *182:16 0.419652
17 *182:17 0.243694
18 *182:18 0.374324
19 *182:19 0.394401
20 *182:20 0.024596
21 *182:21 0.024596
22 *182:22 0.359084
23 *182:23 0.076454
24 *182:24 0.113816
25 *182:25 0.126430
26 *182:26 0.697405
27 *182:27 0.697405
28 *356:A 0.063609
29 *182:29 0.063609
30 *182:30 0.041962
31 *182:31 0.041962
32 *182:32 0.214458
33 *182:33 0.138857
34 *182:34 0.089223
35 *182:35 0.110877
36 *182:36 0.021272
37 *535:A 0.383106
38 *182:38 0.139447
39 *575:D 0.139447
40 *182:40 0.075601
41 *182:41 0.370729
42 *182:42 0.030130
43 *182:43 0.030130
44 *182:44 0.039846
45 *182:45 0.027087
46 *478:A0 0.014028
47 *182:47 0.014028
48 *481:Q 0.004858
49 *182:49 0.004858
50 *350:AN 0.008068
51 *182:51 0.008068
52 *182:52 0.228454
53 *182:53 0.066885

*RES
1 *182:1 *182:2 18.645600
2 *182:3 *182:4 0.182800
3 *182:5 *182:6 7.677600
4 *360:A *182:7 0.365600
5 *182:10 *182:9 10.054000
6 *182:12 *182:11 0.548400
7 *182:14 *182:13 0.731200
8 *182:15 *182:16 5.118400
9 *182:18 *182:17 0.365600
10 *182:4 *182:19 3.656000
11 *182:20 *182:21 0.182800
12 *182:18 *182:22 3.290400
13 *182:23 *182:7 0.182800
14 *182:25 *182:24 1.096800
15 *182:27 *182:26 8.043200
16 *356:A *182:29 0.731200
17 *182:30 *182:31 0.365600
18 *182:25 *182:9 0.182800
19 *182:32 *182:33 1.462400
20 *182:34 *182:35 1.645200
21 *182:36 *535:A 0.196510
22 *182:38 *575:D 2.559200
23 *182:40 *182:32 0.731200
24 *535:A *182:41 6.384290
25 *182:42 *182:43 0.182800
26 *182:44 *182:35 0.548400
27 *182:44 *182:45 0.365600
28 *182:47 *478:A0 0.182800
29 *182:49 *481:Q 0.007312
30 *182:51 *350:AN 0.007312
31 *182:52 *182:17 2.742000
32 *182:23 *182:53 1.096800
33 *182:36 *182:45 0.182800
34 *182:21 *350:AN 2.000000
35 *182:33 *182:42 2.000000
36 *182:19 *182:34 2.000000
37 *182:4 *481:Q 2.000000
38 *182:6 *182:3 2.000000
39 *182:1 *182:41 2.000000
40 *182:26 *182:2 2.000000
41 *182:43 *182:38 2.000000
42 *182:40 *182:13 2.000000
43 *182:27 *182:11 2.000000
44 *182:10 *182:20 2.000000
45 *182:5 *182:31 2.000000
46 *182:30 *182:53 2.000000
47 *182:52 *182:29 2.000000
48 *182:22 *182:7 2.000000
49 *182:14 *478:A0 2.000000
50 *182:24 *182:12 2.000000
51 *182:15 *182:9 2.000000
52 *182:16 *182:32 2.000000
*END

*D_NET *183 6.686336

*CONN
*I *478:Y O *C 38.900 14.300
*I *479:B I *C 3.100 16.292
*N *183:2 *C 38.900 14.500
*N *183:3 *C 10.300 15.500
*N *183:4 *C 10.300 14.300
*N *183:5 *C 10.300 14.300
*N *183:6 *C 38.900 14.300
*N *183:8 *C 3.100 15.500
*N *183:9 *C 3.100 15.500
*N *183:10 *C 10.300 15.500
*N *183:11 *C 38.900 14.300
*N *183:12 *C 38.900 14.300

*CAP
1 *478:Y 0.012333
2 *183:2 0.012333
3 *183:3 0.099666
4 *183:4 0.099666
5 *183:5 2.484040
6 *183:6 2.484040
7 *479:B 0.059155
8 *183:8 0.059155
9 *183:9 0.687974
10 *183:10 0.687974

*RES
1 *478:Y *183:2 0.182800
2 *183:4 *183:3 1.096800
3 *183:5 *183:6 26.140400
4 *183:8 *479:B 0.723888
5 *183:9 *183:10 6.580800
6 *183:11 *183:12 2.000000
7 *183:6 *183:11 2.000000
8 *183:9 *183:8 2.000000
9 *183:12 *478:Y 2.000000
10 *183:5 *183:4 2.000000
11 *183:3 *183:10 2.000000
*END

*D_NET *184 0.188986

*CONN
*I *479:A I *C 4.300 16.095
*I *480:Y O *C 5.700 16.300
*N *184:1 *C 4.300 16.300
*N *184:2 *C 5.700 16.300
*N *184:4 *C 4.300 16.300
*N *184:6 *C 5.700 16.292

*CAP
1 *184:1 0.078233
2 *184:2 0.078233
3 *479:A 0.010048
4 *184:4 0.010048
5 *480:Y 0.006211
6 *184:6 0.006211

*RES
1 *184:1 *184:2 1.279600
2 *479:A *184:4 0.187370
3 *184:6 *480:Y 0.007312
4 *184:1 *184:4 2.000000
5 *184:2 *480:Y 2.000000
*END

*D_NET *185 7.168860

*CONN
*I *574:D I *C 37.700 20.100
*I *458:AN I *C 36.900 12.100
*I *482:Q O *C 14.500 16.292
*I *539:A0 I *C 17.700 18.900
*I *457:AN I *C 35.900 12.100
*N *185:1 *C 14.900 18.100
*N *185:2 *C 16.700 18.100
*N *185:3 *C 37.700 18.900
*N *185:5 *C 15.900 13.300
*N *185:6 *C 20.100 13.300
*N *185:7 *C 37.900 18.900
*N *185:8 *C 37.700 18.900
*N *185:9 *C 33.800 15.100
*N *185:10 *C 33.800 15.300
*N *185:12 *C 36.900 12.090
*N *185:13 *C 36.500 15.300
*N *185:14 *C 36.500 16.100
*N *185:16 *C 14.500 13.500
*N *185:17 *C 15.900 13.500
*N *185:18 *C 17.100 18.500
*N *185:19 *C 17.100 18.900
*N *185:20 *C 16.900 18.100
*N *185:21 *C 16.900 18.500
*N *185:22 *C 36.500 16.100
*N *185:23 *C 37.900 16.100
*N *185:24 *C 14.500 13.500
*N *185:25 *C 14.500 16.900
*N *185:26 *C 14.900 16.900
*N *185:27 *C 36.300 15.300
*N *185:28 *C 14.900 18.100
*N *185:29 *C 36.300 12.100
*N *185:30 *C 35.900 12.100
*N *185:31 *C 16.700 18.100
*N *185:32 *C 37.900 16.100
*N *185:33 *C 37.900 18.900
*N *185:35 *C 17.700 18.895
*N *185:36 *C 20.100 13.300
*N *185:37 *C 20.100 15.100
*N *185:38 *C 17.100 18.900
*N *185:39 *C 17.700 18.900
*N *185:40 *C 20.100 15.100
*N *185:41 *C 36.300 15.300
*N *185:42 *C 36.900 12.100
*N *185:43 *C 36.300 12.100

*CAP
1 *185:1 0.092054
2 *185:2 0.092054
3 *185:3 0.095879
4 *574:D 0.095879
5 *185:5 0.382483
6 *185:6 0.368617
7 *185:7 0.019172
8 *185:8 0.019172
9 *185:9 1.223207
10 *185:10 0.204569
11 *458:AN 0.003967
12 *185:12 0.003967
13 *185:13 0.066617
14 *185:14 0.057827
15 *482:Q 0.222488
16 *185:16 0.190797
17 *185:17 0.140005
18 *185:18 0.051919
19 *185:19 0.040834
20 *185:20 0.034585
21 *185:21 0.037333
22 *185:22 0.131307
23 *185:23 0.131307
24 *185:24 0.126139
25 *185:25 0.047640
26 *185:26 0.096941
27 *185:27 0.193055
28 *185:28 0.080992
29 *185:29 0.110870
30 *185:30 0.050059
31 *185:31 0.008338
32 *185:32 0.287664
33 *185:33 0.287664
34 *539:A0 0.007283
35 *185:35 0.007283
36 *185:36 0.155173
37 *185:37 0.155173
38 *185:38 0.067480
39 *185:39 0.067480
40 *185:40 1.211693
41 *185:41 0.224937
42 *185:42 0.060811
43 *185:43 0.216148

*RES
1 *185:1 *185:2 1.645200
2 *185:3 *574:D 1.096800
3 *185:5 *185:6 3.838800
4 *185:8 *185:7 0.182800
5 *185:9 *185:10 0.182800
6 *185:12 *458:AN 0.009140
7 *185:13 *185:14 0.731200
8 *185:16 *482:Q 2.551888
9 *185:5 *185:17 0.182800
10 *185:18 *185:19 0.365600
11 *185:20 *185:21 0.365600
12 *185:22 *185:23 1.279600
13 *185:24 *185:17 1.279600
14 *185:25 *185:26 0.365600
15 *185:10 *185:27 2.285000
16 *185:26 *185:28 1.096800
17 *185:30 *185:29 0.365600
18 *185:31 *185:20 0.182800
19 *482:Q *185:25 0.555712
20 *185:32 *185:33 2.559200
21 *185:35 *539:A0 0.004570
22 *185:36 *185:37 1.645200
23 *185:21 *185:18 0.182800
24 *185:38 *185:39 0.548400
25 *185:40 *185:9 12.521800
26 *185:41 *185:13 0.182800
27 *185:29 *185:42 0.548400
28 *185:43 *185:41 2.924800
29 *185:31 *185:2 2.000000
30 *185:42 *458:AN 2.000000
31 *185:27 *185:41 2.000000
32 *185:32 *185:23 2.000000
33 *185:14 *185:22 2.000000
34 *185:8 *185:3 2.000000
35 *185:36 *185:6 2.000000
36 *185:24 *185:16 2.000000
37 *185:19 *185:38 2.000000
38 *185:1 *185:28 2.000000
39 *185:40 *185:37 2.000000
40 *185:30 *457:AN 2.000000
41 *185:33 *185:7 2.000000
42 *185:43 *185:29 2.000000
43 *185:39 *539:A0 2.000000
*END

*D_NET *186 3.264551

*CONN
*I *483:Y O *C 15.900 15.715
*I *346:D I *C 25.500 4.695
*N *186:1 *C 24.700 6.900
*N *186:2 *C 24.700 6.300
*N *186:3 *C 15.500 15.700
*N *186:4 *C 15.100 15.700
*N *186:6 *C 15.900 15.500
*N *186:7 *C 25.500 6.300
*N *186:9 *C 17.000 6.900
*N *186:10 *C 24.700 6.900
*N *186:11 *C 15.100 15.700
*N *186:12 *C 15.100 7.100
*N *186:13 *C 17.000 7.100
*N *186:14 *C 15.500 15.500
*N *186:15 *C 15.500 15.700
*N *186:16 *C 15.100 7.100

*CAP
1 *186:1 0.049132
2 *186:2 0.077839
3 *186:3 0.041574
4 *186:4 0.041574
5 *483:Y 0.011970
6 *186:6 0.058150
7 *186:7 0.113895
8 *346:D 0.085188
9 *186:9 0.599182
10 *186:10 0.586928
11 *186:11 0.567706
12 *186:12 0.567706
13 *186:13 0.203568
14 *186:14 0.057502
15 *186:15 0.011322
16 *186:16 0.191314

*RES
1 *186:2 *186:1 0.548400
2 *186:4 *186:3 0.365600
3 *186:6 *483:Y 0.196510
4 *346:D *186:7 1.466970
5 *186:2 *186:7 0.731200
6 *186:9 *186:10 7.037800
7 *186:12 *186:11 7.860400
8 *186:9 *186:13 0.182800
9 *186:14 *186:6 0.365600
10 *186:14 *186:15 0.182800
11 *186:16 *186:13 1.736600
12 *186:10 *186:1 2.000000
13 *186:3 *186:15 2.000000
14 *186:11 *186:4 2.000000
15 *186:12 *186:16 2.000000
*END

*D_NET *187 0.722675

*CONN
*I *484:Y O *C 16.900 16.292
*I *483:A0 I *C 14.700 16.095
*N *187:1 *C 16.900 14.900
*N *187:4 *C 14.700 14.900
*N *187:5 *C 14.700 14.900
*N *187:6 *C 16.900 14.900

*CAP
1 *187:1 0.101691
2 *484:Y 0.101691
3 *483:A0 0.096410
4 *187:4 0.096410
5 *187:5 0.163237
6 *187:6 0.163237

*RES
1 *187:1 *484:Y 1.272288
2 *187:4 *483:A0 1.092230
3 *187:5 *187:6 2.010800
4 *187:6 *187:1 2.000000
5 *187:5 *187:4 2.000000
*END

*D_NET *188 0.699220

*CONN
*I *483:A1 I *C 15.100 16.095
*I *485:Y O *C 18.300 16.500
*N *188:1 *C 16.300 15.300
*N *188:2 *C 16.300 15.875
*N *188:3 *C 16.500 15.875
*N *188:5 *C 15.100 15.300
*N *188:6 *C 16.500 16.500
*N *188:7 *C 16.500 16.500
*N *188:8 *C 18.300 16.500
*N *188:10 *C 18.300 16.295

*CAP
1 *188:1 0.105127
2 *188:2 0.039639
3 *188:3 0.055996
4 *483:A1 0.047601
5 *188:5 0.121493
6 *188:6 0.047591
7 *188:7 0.120526
8 *188:8 0.120526
9 *485:Y 0.020361
10 *188:10 0.020361

*RES
1 *188:1 *188:2 0.525550
2 *188:2 *188:3 0.182800
3 *188:5 *483:A1 0.726630
4 *188:3 *188:6 0.571250
5 *188:7 *188:8 1.645200
6 *188:10 *485:Y 0.187370
7 *188:5 *188:1 1.096800
8 *188:8 *485:Y 2.000000
9 *188:7 *188:6 2.000000
*END

*D_NET *189 0.602377

*CONN
*I *485:B I *C 17.500 15.892
*I *484:A0 I *C 16.100 15.915
*I *486:Y O *C 18.900 16.295
*N *189:1 *C 18.500 15.500
*N *189:2 *C 18.900 15.500
*N *189:4 *C 17.500 16.095
*N *189:6 *C 16.100 15.892
*N *189:7 *C 17.900 15.892
*N *189:8 *C 17.900 15.710
*N *189:10 *C 18.500 15.710
*N *189:11 *C 18.500 15.710
*N *189:12 *C 17.500 15.892
*N *189:13 *C 16.100 15.892

*CAP
1 *189:1 0.027648
2 *189:2 0.058868
3 *485:B 0.022618
4 *189:4 0.022618
5 *484:A0 0.008156
6 *189:6 0.008156
7 *189:7 0.039832
8 *189:8 0.070247
9 *486:Y 0.042919
10 *189:10 0.061789
11 *189:11 0.011700
12 *189:12 0.129601
13 *189:13 0.098226

*RES
1 *189:1 *189:2 0.365600
2 *485:B *189:4 0.185542
3 *189:6 *484:A0 0.021022
4 *189:8 *189:7 0.166348
5 *189:2 *486:Y 0.726630
6 *189:8 *189:10 0.548400
7 *189:1 *189:11 0.191940
8 *189:12 *189:7 0.365600
9 *189:13 *189:12 1.279600
10 *189:12 *485:B 2.000000
11 *189:13 *189:6 2.000000
12 *189:10 *189:11 2.000000
*END

*D_NET *190 0.851442

*CONN
*I *483:C0 I *C 15.700 16.092
*I *487:Y O *C 19.300 16.292
*N *190:2 *C 15.700 15.900
*N *190:3 *C 17.900 16.292
*N *190:4 *C 19.300 16.292
*N *190:5 *C 15.700 15.900
*N *190:6 *C 15.900 15.900
*N *190:7 *C 15.900 15.700
*N *190:8 *C 15.900 15.700
*N *190:9 *C 17.900 15.700
*N *190:10 *C 17.900 15.700
*N *190:11 *C 17.900 16.292
*N *190:13 *C 15.700 15.900

*CAP
1 *483:C0 0.013432
2 *190:2 0.013432
3 *190:3 0.098119
4 *190:4 0.098119
5 *190:5 0.012614
6 *190:6 0.037436
7 *190:7 0.024822
8 *190:8 0.230797
9 *190:9 0.230797
10 *190:10 0.045936
11 *190:11 0.045936

*RES
1 *190:2 *483:C0 0.175488
2 *190:3 *190:4 1.279600
3 *190:5 *190:6 0.182800
4 *190:7 *190:6 0.182800
5 *190:8 *190:9 1.828000
6 *190:10 *190:11 0.541088
7 *190:4 *487:Y 2.000000
8 *190:13 *190:2 2.000000
9 *190:5 *190:13 2.000000
10 *190:9 *190:10 2.000000
11 *190:11 *190:3 2.000000
12 *190:8 *190:7 2.000000
*END

*D_NET *191 2.000893

*CONN
*I *366:D I *C 17.900 6.500
*I *488:Y O *C 21.700 16.092
*N *191:1 *C 21.900 7.900
*N *191:2 *C 17.900 7.900
*N *191:3 *C 17.900 7.900
*N *191:6 *C 21.900 16.092
*N *191:7 *C 21.900 7.900

*CAP
1 *191:1 0.280063
2 *191:2 0.280063
3 *191:3 0.112953
4 *366:D 0.112953
5 *488:Y 0.011834
6 *191:6 0.607430
7 *191:7 0.595596

*RES
1 *191:2 *191:1 3.656000
2 *366:D *191:3 1.279600
3 *488:Y *191:6 0.182800
4 *191:7 *191:6 7.487488
5 *191:1 *191:7 2.000000
6 *191:2 *191:3 2.000000
*END

*D_NET *192 0.404574

*CONN
*I *489:Y O *C 23.900 15.900
*I *488:B I *C 21.300 15.895
*N *192:2 *C 23.900 15.875
*N *192:4 *C 21.300 15.900
*N *192:5 *C 21.300 15.900
*N *192:6 *C 23.900 15.900

*CAP
1 *489:Y 0.009337
2 *192:2 0.009337
3 *488:B 0.010403
4 *192:4 0.010403
5 *192:5 0.182547
6 *192:6 0.182547

*RES
1 *192:2 *489:Y 0.022850
2 *488:B *192:4 0.004570
3 *192:5 *192:6 2.376400
4 *192:6 *489:Y 2.000000
5 *192:5 *192:4 2.000000
*END

*D_NET *193 2.187654

*CONN
*I *490:Y O *C 25.900 15.895
*I *367:D I *C 22.300 6.500
*N *193:1 *C 24.900 6.500
*N *193:2 *C 22.300 6.500
*N *193:4 *C 25.900 13.100
*N *193:5 *C 24.900 13.100
*N *193:6 *C 24.900 6.500
*N *193:7 *C 25.900 13.100
*N *193:8 *C 24.900 13.100

*CAP
1 *193:1 0.206293
2 *193:2 0.206293
3 *490:Y 0.218693
4 *193:4 0.218693
5 *193:5 0.566148
6 *193:6 0.566148
7 *193:7 0.102693
8 *193:8 0.102693

*RES
1 *193:2 *193:1 2.376400
2 *193:4 *490:Y 2.554630
3 *193:6 *193:5 6.032400
4 *193:8 *193:7 0.914000
5 *193:5 *193:8 2.000000
6 *193:7 *193:4 2.000000
7 *193:2 *367:D 2.000000
8 *193:6 *193:1 2.000000
*END

*D_NET *194 0.789993

*CONN
*I *491:Y O *C 27.100 16.300
*I *490:A0 I *C 24.700 16.092
*N *194:1 *C 26.100 16.300
*N *194:2 *C 27.100 16.300
*N *194:4 *C 27.100 16.292
*N *194:5 *C 24.700 15.300
*N *194:6 *C 26.100 15.300
*N *194:7 *C 26.100 15.300
*N *194:8 *C 26.100 16.300
*N *194:10 *C 24.700 15.300

*CAP
1 *194:1 0.086819
2 *194:2 0.086819
3 *491:Y 0.010463
4 *194:4 0.010463
5 *194:5 0.137458
6 *194:6 0.137458
7 *194:7 0.092486
8 *194:8 0.092486
9 *490:A0 0.067772
10 *194:10 0.067772

*RES
1 *194:1 *194:2 0.914000
2 *194:4 *491:Y 0.007312
3 *194:5 *194:6 1.279600
4 *194:7 *194:8 0.914000
5 *194:10 *490:A0 0.723888
6 *194:1 *194:8 2.000000
7 *194:2 *491:Y 2.000000
8 *194:5 *194:10 2.000000
9 *194:6 *194:7 2.000000
*END

*D_NET *195 1.293017

*CONN
*I *490:A1 I *C 25.100 15.910
*I *492:Y O *C 28.500 16.115
*N *195:1 *C 25.100 15.300
*N *195:2 *C 24.900 15.300
*N *195:3 *C 24.900 14.100
*N *195:5 *C 24.900 14.100
*N *195:6 *C 28.500 14.100
*N *195:7 *C 28.500 14.100

*CAP
1 *195:1 0.052815
2 *195:2 0.099093
3 *195:3 0.089524
4 *490:A1 0.043246
5 *195:5 0.364525
6 *195:6 0.364525
7 *195:7 0.139644
8 *492:Y 0.139644

*RES
1 *195:2 *195:1 0.182800
2 *195:3 *195:2 1.096800
3 *195:1 *490:A1 0.557540
4 *195:5 *195:6 3.290400
5 *195:7 *492:Y 1.841710
6 *195:6 *195:7 2.000000
7 *195:5 *195:3 2.000000
*END

*D_NET *196 3.696340

*CONN
*I *492:C I *C 27.500 16.292
*I *491:A1 I *C 26.500 16.110
*I *365:Y O *C 17.300 6.075
*I *493:B I *C 28.900 16.292
*N *196:1 *C 27.300 16.292
*N *196:3 *C 24.300 11.300
*N *196:4 *C 24.300 10.900
*N *196:5 *C 26.700 15.710
*N *196:6 *C 27.300 15.710
*N *196:7 *C 28.300 11.300
*N *196:8 *C 24.300 11.300
*N *196:9 *C 28.300 16.292
*N *196:10 *C 28.300 11.300
*N *196:11 *C 28.300 16.292
*N *196:12 *C 28.900 16.292
*N *196:13 *C 26.700 16.110
*N *196:14 *C 26.700 15.710
*N *196:15 *C 27.300 15.710
*N *196:17 *C 27.500 16.292
*N *196:18 *C 24.300 10.900
*N *196:19 *C 17.300 10.900
*N *196:20 *C 17.300 10.900

*CAP
1 *196:1 0.043276
2 *492:C 0.009569
3 *196:3 0.025161
4 *196:4 0.025161
5 *196:5 0.053842
6 *196:6 0.053842
7 *196:7 0.408156
8 *196:8 0.408156
9 *196:9 0.365345
10 *196:10 0.365345
11 *196:11 0.087652
12 *196:12 0.037429
13 *196:13 0.037898
14 *196:14 0.028329
15 *196:15 0.033707
16 *491:A1 0.009569
17 *196:17 0.050223
18 *196:18 0.514581
19 *196:19 0.514581
20 *196:20 0.312259
21 *365:Y 0.312259

*RES
1 *196:1 *492:C 0.182800
2 *196:4 *196:3 0.365600
3 *196:5 *196:6 0.548400
4 *196:8 *196:7 3.656000
5 *196:10 *196:9 4.562688
6 *196:11 *196:12 0.548400
7 *196:14 *196:13 0.365600
8 *196:15 *196:1 0.531948
9 *491:A1 *196:13 0.182800
10 *196:17 *196:11 0.731200
11 *196:19 *196:18 6.398000
12 *365:Y *196:20 4.410050
13 *196:17 *492:C 2.000000
14 *196:6 *196:15 2.000000
15 *196:7 *196:10 2.000000
16 *196:11 *196:9 2.000000
17 *196:5 *196:14 2.000000
18 *196:8 *196:3 2.000000
19 *196:19 *196:20 2.000000
20 *196:18 *196:4 2.000000
21 *196:12 *493:B 2.000000
*END

*D_NET *197 1.240484

*CONN
*I *490:C0 I *C 25.700 16.095
*I *494:Y O *C 30.900 16.300
*N *197:1 *C 25.700 16.300
*N *197:2 *C 30.500 16.300
*N *197:3 *C 30.500 16.300
*N *197:4 *C 30.900 16.300
*N *197:6 *C 25.700 16.300
*N *197:8 *C 30.900 16.292
*N *197:9 *C 30.500 16.300
*N *197:10 *C 25.700 16.300
*N *197:11 *C 25.700 16.300

*CAP
1 *197:1 0.535756
2 *197:2 0.535756
3 *197:3 0.051003
4 *197:4 0.051003
5 *490:C0 0.022783
6 *197:6 0.022783
7 *494:Y 0.010700
8 *197:8 0.010700

*RES
1 *197:1 *197:2 4.387200
2 *197:3 *197:4 0.365600
3 *490:C0 *197:6 0.187370
4 *197:8 *494:Y 0.007312
5 *197:9 *197:3 2.000000
6 *197:10 *197:6 2.000000
7 *197:4 *494:Y 2.000000
8 *197:2 *197:9 2.000000
9 *197:11 *197:10 2.000000
10 *197:1 *197:11 2.000000
*END

*D_NET *198 1.593654

*CONN
*I *377:D I *C 34.500 6.500
*I *495:Y O *C 33.300 16.092
*N *198:1 *C 33.700 11.100
*N *198:2 *C 33.700 5.900
*N *198:3 *C 33.700 5.900
*N *198:4 *C 34.500 5.900
*N *198:5 *C 33.300 11.100
*N *198:6 *C 33.700 11.100
*N *198:7 *C 34.500 5.900
*N *198:10 *C 33.300 11.100

*CAP
1 *198:1 0.431848
2 *198:2 0.431848
3 *198:3 0.074296
4 *198:4 0.074296
5 *198:5 0.041989
6 *198:6 0.041989
7 *198:7 0.035225
8 *377:D 0.035225
9 *495:Y 0.213470
10 *198:10 0.213470

*RES
1 *198:2 *198:1 4.752800
2 *198:3 *198:4 0.731200
3 *198:5 *198:6 0.365600
4 *198:7 *377:D 0.548400
5 *198:10 *495:Y 4.562688
6 *198:1 *198:6 2.000000
7 *198:4 *198:7 2.000000
8 *198:2 *198:3 2.000000
9 *198:5 *198:10 2.000000
*END

*D_NET *199 0.498404

*CONN
*I *495:B I *C 32.900 15.895
*I *496:Y O *C 35.500 15.900
*N *199:2 *C 32.900 15.900
*N *199:4 *C 35.500 15.875
*N *199:5 *C 32.900 15.900
*N *199:6 *C 35.500 15.900

*CAP
1 *495:B 0.005284
2 *199:2 0.005284
3 *496:Y 0.004027
4 *199:4 0.004027
5 *199:5 0.239891
6 *199:6 0.239891

*RES
1 *495:B *199:2 0.004570
2 *199:4 *496:Y 0.022850
3 *199:5 *199:6 2.376400
4 *199:5 *199:2 2.000000
5 *199:6 *496:Y 2.000000
*END

*D_NET *200 7.088924

*CONN
*I *497:Y O *C 37.500 15.715
*I *385:D I *C 11.900 7.300
*N *200:1 *C 12.100 7.300
*N *200:2 *C 12.100 1.900
*N *200:3 *C 36.700 1.900
*N *200:4 *C 36.700 13.900
*N *200:5 *C 37.500 13.900
*N *200:8 *C 11.900 7.495
*N *200:9 *C 12.100 1.900
*N *200:10 *C 36.700 1.900
*N *200:11 *C 36.700 13.900
*N *200:12 *C 37.500 13.900

*CAP
1 *200:1 0.377080
2 *200:2 0.367511
3 *200:3 0.694618
4 *200:4 0.694618
5 *200:5 0.123279
6 *497:Y 0.123279
7 *385:D 0.036320
8 *200:8 0.026751
9 *200:9 2.270394
10 *200:10 2.270394
11 *200:11 0.052340
12 *200:12 0.052340

*RES
1 *200:2 *200:1 4.935600
2 *200:3 *200:4 10.968000
3 *200:5 *497:Y 1.658910
4 *385:D *200:1 0.182800
5 *385:D *200:8 0.178230
6 *200:9 *200:10 22.484400
7 *200:11 *200:12 0.731200
8 *200:12 *200:5 2.000000
9 *200:9 *200:2 2.000000
10 *200:4 *200:11 2.000000
11 *200:3 *200:10 2.000000
*END

*D_NET *201 0.643279

*CONN
*I *497:B0 I *C 37.300 16.095
*I *498:Y O *C 38.900 16.295
*N *201:1 *C 37.300 15.100
*N *201:2 *C 38.900 15.100
*N *201:4 *C 37.300 15.100
*N *201:5 *C 38.900 15.100

*CAP
1 *201:1 0.158544
2 *201:2 0.158544
3 *497:B0 0.097197
4 *201:4 0.097197
5 *201:5 0.065899
6 *498:Y 0.065899

*RES
1 *201:1 *201:2 1.462400
2 *201:4 *497:B0 0.909430
3 *201:5 *498:Y 1.092230
4 *201:1 *201:4 2.000000
5 *201:2 *201:5 2.000000
*END

*D_NET *202 0.240204

*CONN
*I *499:Z O *C 39.900 16.500
*I *498:B0 I *C 38.700 16.092
*N *202:2 *C 39.900 16.292
*N *202:3 *C 38.700 16.500
*N *202:4 *C 39.900 16.500
*N *202:6 *C 38.700 16.500

*CAP
1 *499:Z 0.011517
2 *202:2 0.011517
3 *202:3 0.079067
4 *202:4 0.079067
5 *498:B0 0.029518
6 *202:6 0.029518

*RES
1 *202:2 *499:Z 0.190112
2 *202:3 *202:4 1.096800
3 *498:B0 *202:6 0.372912
4 *202:3 *202:6 2.000000
5 *202:4 *499:Z 2.000000
*END

*D_NET *203 3.943802

*CONN
*I *386:D I *C 16.300 7.500
*I *500:Y O *C 3.700 17.300
*N *203:1 *C 4.300 13.900
*N *203:2 *C 12.100 13.900
*N *203:3 *C 12.100 7.500
*N *203:4 *C 16.300 7.500
*N *203:5 *C 3.700 18.100
*N *203:6 *C 4.300 18.100
*N *203:8 *C 16.300 7.495
*N *203:9 *C 4.300 18.100
*N *203:10 *C 4.300 13.900
*N *203:12 *C 3.700 18.100
*N *203:13 *C 12.100 13.900
*N *203:14 *C 12.100 7.500

*CAP
1 *203:1 0.484077
2 *203:2 0.484077
3 *203:3 0.388209
4 *203:4 0.388209
5 *203:5 0.067533
6 *203:6 0.067533
7 *386:D 0.007095
8 *203:8 0.007095
9 *203:9 0.428167
10 *203:10 0.428167
11 *500:Y 0.057026
12 *203:12 0.057026
13 *203:13 0.539795
14 *203:14 0.539795

*RES
1 *203:1 *203:2 7.129200
2 *203:3 *203:4 3.838800
3 *203:5 *203:6 0.548400
4 *203:8 *386:D 0.004570
5 *203:10 *203:9 3.838800
6 *500:Y *203:12 0.731200
7 *203:14 *203:13 5.849600
8 *203:9 *203:6 2.000000
9 *203:14 *203:3 2.000000
10 *203:4 *386:D 2.000000
11 *203:2 *203:13 2.000000
12 *203:5 *203:12 2.000000
13 *203:1 *203:10 2.000000
*END

*D_NET *204 0.249465

*CONN
*I *500:AN I *C 3.100 17.700
*I *501:Y O *C 4.900 17.100
*N *204:1 *C 3.100 17.100
*N *204:2 *C 4.900 17.100
*N *204:4 *C 3.100 17.100

*CAP
1 *204:1 0.099506
2 *204:2 0.099506
3 *500:AN 0.025227
4 *204:4 0.025227

*RES
1 *204:1 *204:2 1.645200
2 *204:4 *500:AN 0.548400
3 *204:2 *501:Y 2.000000
4 *204:1 *204:4 2.000000
*END

*D_NET *205 0.508444

*CONN
*I *502:A I *C 5.900 17.700
*I *501:A0 I *C 4.300 17.500
*I *503:Y O *C 6.900 17.900
*N *205:1 *C 5.900 17.700
*N *205:2 *C 5.900 17.900
*N *205:4 *C 5.900 17.690
*N *205:5 *C 4.300 17.700
*N *205:7 *C 4.300 17.700
*N *205:8 *C 6.900 17.900

*CAP
1 *205:1 0.132567
2 *205:2 0.096343
3 *502:A 0.004586
4 *205:4 0.004586
5 *205:5 0.123569
6 *501:A0 0.029723
7 *205:7 0.029723
8 *205:8 0.087346

*RES
1 *205:1 *205:2 0.182800
2 *205:4 *502:A 0.009140
3 *205:5 *205:1 1.462400
4 *501:A0 *205:7 0.182800
5 *205:2 *205:8 0.914000
6 *205:5 *205:7 2.000000
7 *205:8 *503:Y 2.000000
8 *205:1 *502:A 2.000000
*END

*D_NET *206 1.074493

*CONN
*I *501:A1 I *C 3.900 17.685
*I *502:B I *C 5.300 17.900
*I *504:Y O *C 8.300 17.300
*N *206:1 *C 5.300 17.900
*N *206:2 *C 5.500 17.900
*N *206:4 *C 3.900 17.900
*N *206:5 *C 5.500 17.900
*N *206:6 *C 5.500 17.700
*N *206:7 *C 8.100 17.300
*N *206:8 *C 8.300 17.300
*N *206:9 *C 5.500 17.700
*N *206:10 *C 8.100 17.700
*N *206:11 *C 3.900 17.900
*N *206:13 *C 5.300 17.885
*N *206:14 *C 8.100 17.700
*N *206:15 *C 8.100 17.300

*CAP
1 *206:1 0.165111
2 *206:2 0.025535
3 *501:A1 0.031209
4 *206:4 0.031209
5 *206:5 0.030572
6 *206:6 0.030572
7 *206:7 0.016292
8 *206:8 0.016292
9 *206:9 0.241839
10 *206:10 0.241839
11 *206:11 0.139576
12 *502:B 0.004851
13 *206:13 0.004851
14 *206:14 0.047372
15 *206:15 0.047372

*RES
1 *206:1 *206:2 0.182800
2 *501:A1 *206:4 0.196510
3 *206:6 *206:5 0.182800
4 *206:7 *206:8 0.182800
5 *206:9 *206:10 2.376400
6 *206:11 *206:1 1.279600
7 *206:13 *502:B 0.013710
8 *206:15 *206:14 0.365600
9 *206:5 *206:2 2.000000
10 *206:8 *504:Y 2.000000
11 *206:9 *206:6 2.000000
12 *206:15 *206:7 2.000000
13 *206:1 *502:B 2.000000
14 *206:10 *206:14 2.000000
15 *206:11 *206:4 2.000000
*END

*D_NET *207 5.052570

*CONN
*I *504:C I *C 7.300 17.300
*I *503:B0 I *C 6.700 17.500
*I *467:Y O *C 32.300 13.495
*N *207:2 *C 7.300 16.500
*N *207:3 *C 20.100 15.900
*N *207:4 *C 20.100 15.700
*N *207:5 *C 10.300 15.900
*N *207:6 *C 7.300 16.500
*N *207:7 *C 10.300 16.500
*N *207:8 *C 6.700 17.300
*N *207:9 *C 7.300 17.300
*N *207:10 *C 10.300 16.500
*N *207:11 *C 10.300 15.900
*N *207:12 *C 28.100 14.900
*N *207:13 *C 32.300 14.900
*N *207:14 *C 28.100 15.700
*N *207:15 *C 28.100 14.900
*N *207:17 *C 6.700 17.300
*N *207:18 *C 28.100 15.700
*N *207:19 *C 32.300 14.900

*CAP
1 *504:C 0.062952
2 *207:2 0.062952
3 *207:3 0.747643
4 *207:4 0.769698
5 *207:5 0.734542
6 *207:6 0.247910
7 *207:7 0.247910
8 *207:8 0.057785
9 *207:9 0.057785
10 *207:10 0.053462
11 *207:11 0.053462
12 *207:12 0.409036
13 *207:13 0.409036
14 *207:14 0.068364
15 *207:15 0.068364
16 *503:B0 0.022410
17 *207:17 0.022410
18 *207:18 0.756596
19 *207:19 0.100126
20 *467:Y 0.100126

*RES
1 *207:2 *504:C 0.731200
2 *207:4 *207:3 0.182800
3 *207:5 *207:3 8.957200
4 *207:6 *207:7 2.742000
5 *207:8 *207:9 0.548400
6 *207:11 *207:10 0.548400
7 *207:12 *207:13 3.838800
8 *207:15 *207:14 0.731200
9 *207:17 *503:B0 0.182800
10 *207:4 *207:18 7.312000
11 *467:Y *207:19 1.284170
12 *207:6 *207:2 2.000000
13 *207:8 *207:17 2.000000
14 *207:5 *207:11 2.000000
15 *207:9 *504:C 2.000000
16 *207:15 *207:12 2.000000
17 *207:10 *207:7 2.000000
18 *207:18 *207:14 2.000000
19 *207:13 *207:19 2.000000
*END

*D_NET *208 1.005792

*CONN
*I *505:Y O *C 9.300 17.900
*I *500:B I *C 3.500 17.890
*N *208:1 *C 3.500 18.300
*N *208:2 *C 9.300 18.300
*N *208:3 *C 9.300 18.300
*N *208:6 *C 3.500 18.300

*CAP
1 *208:1 0.444401
2 *208:2 0.444401
3 *208:3 0.031041
4 *505:Y 0.031041
5 *500:B 0.027455
6 *208:6 0.027455

*RES
1 *208:1 *208:2 5.301200
2 *505:Y *208:3 0.365600
3 *500:B *208:6 0.374740
4 *208:2 *208:3 2.000000
5 *208:1 *208:6 2.000000
*END

*D_NET *209 0.251284

*CONN
*I *505:B0 I *C 9.100 17.890
*I *506:Y O *C 10.500 17.890
*N *209:1 *C 10.300 17.890
*N *209:2 *C 9.100 17.890
*N *209:4 *C 9.100 17.700
*N *209:6 *C 10.300 17.890

*CAP
1 *209:1 0.101369
2 *209:2 0.101369
3 *505:B0 0.014704
4 *209:4 0.014704
5 *506:Y 0.009569
6 *209:6 0.009569

*RES
1 *209:2 *209:1 1.096800
2 *209:4 *505:B0 0.173660
3 *209:6 *506:Y 0.182800
4 *209:2 *505:B0 2.000000
5 *209:1 *209:6 2.000000
*END

*D_NET *210 2.900522

*CONN
*I *400:D I *C 3.300 9.300
*I *507:Y O *C 11.900 17.700
*N *210:1 *C 3.300 10.100
*N *210:2 *C 8.300 10.100
*N *210:3 *C 8.500 17.900
*N *210:4 *C 8.500 17.700
*N *210:6 *C 3.300 10.100
*N *210:8 *C 11.900 17.885
*N *210:9 *C 11.700 17.700
*N *210:10 *C 8.300 17.900
*N *210:11 *C 8.300 10.100
*N *210:12 *C 8.300 17.900
*N *210:13 *C 11.700 17.700
*N *210:14 *C 11.900 17.700
*N *210:15 *C 11.700 17.700

*CAP
1 *210:1 0.372855
2 *210:2 0.372855
3 *210:3 0.039785
4 *210:4 0.310248
5 *400:D 0.033313
6 *210:6 0.033313
7 *507:Y 0.021750
8 *210:8 0.021750
9 *210:9 0.297147
10 *210:10 0.026683
11 *210:11 0.660234
12 *210:12 0.660234
13 *210:13 0.025177
14 *210:14 0.025177

*RES
1 *210:1 *210:2 4.570000
2 *210:4 *210:3 0.182800
3 *400:D *210:6 0.731200
4 *507:Y *210:8 0.169090
5 *210:4 *210:9 2.924800
6 *210:10 *210:3 0.182800
7 *210:11 *210:12 7.129200
8 *210:13 *210:14 0.182800
9 *210:1 *210:6 2.000000
10 *210:15 *210:13 2.000000
11 *210:9 *210:15 2.000000
12 *210:10 *210:12 2.000000
13 *210:11 *210:2 2.000000
14 *210:14 *507:Y 2.000000
*END

*D_NET *211 0.414777

*CONN
*I *507:A0 I *C 10.700 17.500
*I *508:Y O *C 13.300 17.900
*N *211:1 *C 10.700 17.900
*N *211:2 *C 13.300 17.900
*N *211:4 *C 10.700 17.900

*CAP
1 *211:1 0.187526
2 *211:2 0.187526
3 *507:A0 0.019863
4 *211:4 0.019863

*RES
1 *211:1 *211:2 2.376400
2 *507:A0 *211:4 0.365600
3 *211:2 *508:Y 2.000000
4 *211:1 *211:4 2.000000
*END

*D_NET *212 0.997176

*CONN
*I *507:A1 I *C 11.100 17.685
*I *509:Y O *C 15.100 17.500
*N *212:1 *C 11.500 17.100
*N *212:2 *C 11.500 17.300
*N *212:3 *C 11.500 17.300
*N *212:4 *C 12.300 17.300
*N *212:5 *C 15.100 17.300
*N *212:6 *C 15.100 17.500
*N *212:8 *C 11.100 17.100
*N *212:10 *C 15.100 17.485
*N *212:11 *C 12.300 17.300
*N *212:12 *C 15.100 17.300
*N *212:13 *C 12.300 17.300
*N *212:14 *C 15.100 17.500

*CAP
1 *212:1 0.034584
2 *212:2 0.018636
3 *212:3 0.074844
4 *212:4 0.074844
5 *212:5 0.024700
6 *212:6 0.024700
7 *507:A1 0.029402
8 *212:8 0.045350
9 *509:Y 0.011394
10 *212:10 0.011394
11 *212:11 0.323663
12 *212:12 0.323663

*RES
1 *212:1 *212:2 0.182800
2 *212:3 *212:4 0.731200
3 *212:5 *212:6 0.182800
4 *212:8 *507:A1 0.534690
5 *212:10 *509:Y 0.013710
6 *212:8 *212:1 0.365600
7 *212:11 *212:12 2.559200
8 *212:13 *212:4 2.000000
9 *212:12 *212:5 2.000000
10 *212:14 *509:Y 2.000000
11 *212:6 *212:14 2.000000
12 *212:11 *212:13 2.000000
13 *212:3 *212:2 2.000000
*END

*D_NET *213 8.685763

*CONN
*I *399:A I *C 36.700 7.500
*I *510:Y O *C 16.500 17.900
*I *508:A0 I *C 12.100 17.500
*I *509:A0 I *C 14.500 17.700
*N *213:1 *C 14.500 17.900
*N *213:2 *C 16.500 17.900
*N *213:3 *C 12.100 18.100
*N *213:4 *C 12.500 18.100
*N *213:6 *C 36.700 7.495
*N *213:7 *C 39.500 7.500
*N *213:8 *C 36.700 7.500
*N *213:10 *C 16.500 17.885
*N *213:11 *C 39.500 21.100
*N *213:12 *C 39.500 7.500
*N *213:13 *C 12.500 18.100
*N *213:14 *C 14.500 18.100
*N *213:15 *C 14.500 17.700
*N *213:16 *C 14.500 17.900
*N *213:17 *C 14.500 21.100
*N *213:18 *C 14.500 21.100
*N *213:19 *C 39.500 21.100
*N *213:21 *C 14.500 18.100
*N *213:23 *C 16.500 17.900
*N *213:24 *C 16.500 17.900
*N *213:25 *C 14.500 17.700

*CAP
1 *213:1 0.223888
2 *213:2 0.223888
3 *213:3 0.053430
4 *213:4 0.015949
5 *399:A 0.003787
6 *213:6 0.003787
7 *213:7 0.165302
8 *213:8 0.165302
9 *510:Y 0.004839
10 *213:10 0.004839
11 *213:11 0.987374
12 *213:12 0.987374
13 *213:13 0.184975
14 *213:14 0.184975
15 *213:15 0.029617
16 *213:16 0.365432
17 *213:17 0.335815
18 *213:18 2.309190
19 *213:19 2.309190
20 *508:A0 0.037481
21 *213:21 0.044663
22 *509:A0 0.044663

*RES
1 *213:1 *213:2 1.828000
2 *213:3 *213:4 0.365600
3 *213:6 *399:A 0.004570
4 *213:8 *213:7 2.559200
5 *213:10 *510:Y 0.013710
6 *213:12 *213:11 12.430400
7 *213:13 *213:14 1.828000
8 *213:15 *213:16 0.182800
9 *213:16 *213:17 2.924800
10 *213:18 *213:19 22.850000
11 *508:A0 *213:3 0.548400
12 *509:A0 *213:21 0.365600
13 *213:14 *213:21 2.000000
14 *213:2 *213:23 2.000000
15 *213:8 *399:A 2.000000
16 *213:19 *213:11 2.000000
17 *213:24 *510:Y 2.000000
18 *213:25 *509:A0 2.000000
19 *213:1 *213:16 2.000000
20 *213:13 *213:4 2.000000
21 *213:15 *213:25 2.000000
22 *213:18 *213:17 2.000000
23 *213:12 *213:7 2.000000
24 *213:23 *213:24 2.000000
*END

*D_NET *214 7.932705

*CONN
*I *509:A1 I *C 14.300 17.500
*I *399:B I *C 37.300 7.692
*I *508:A1 I *C 12.500 17.325
*I *511:Y O *C 17.500 17.900
*N *214:1 *C 13.500 17.900
*N *214:2 *C 13.500 18.900
*N *214:3 *C 29.100 21.300
*N *214:4 *C 40.900 21.300
*N *214:5 *C 12.500 17.500
*N *214:6 *C 13.500 17.500
*N *214:7 *C 40.900 21.300
*N *214:8 *C 40.900 8.100
*N *214:9 *C 14.300 17.900
*N *214:11 *C 17.500 18.100
*N *214:12 *C 18.300 18.100
*N *214:13 *C 16.100 18.900
*N *214:14 *C 16.100 19.100
*N *214:15 *C 17.500 18.900
*N *214:16 *C 17.500 18.500
*N *214:17 *C 37.300 8.100
*N *214:19 *C 40.900 8.100
*N *214:20 *C 37.300 8.100
*N *214:21 *C 13.700 17.900
*N *214:22 *C 14.300 17.900
*N *214:23 *C 17.500 19.100
*N *214:24 *C 13.700 17.900
*N *214:25 *C 17.500 18.900
*N *214:26 *C 18.300 17.700
*N *214:27 *C 29.100 17.700
*N *214:28 *C 18.300 18.100
*N *214:29 *C 18.300 17.700
*N *214:30 *C 29.100 17.700
*N *214:31 *C 29.100 21.300
*N *214:32 *C 13.500 18.900
*N *214:34 *C 12.500 17.500
*N *214:35 *C 13.500 17.500
*N *214:36 *C 17.500 18.100
*N *214:38 *C 17.500 18.500
*N *214:39 *C 17.500 18.500

*CAP
1 *214:1 0.157637
2 *214:2 0.104935
3 *214:3 0.914452
4 *214:4 0.914452
5 *214:5 0.103323
6 *214:6 0.103323
7 *214:7 0.659900
8 *214:8 0.659900
9 *214:9 0.044663
10 *509:A1 0.044663
11 *214:11 0.047335
12 *214:12 0.047335
13 *214:13 0.243886
14 *214:14 0.120443
15 *214:15 0.039265
16 *214:16 0.039265
17 *214:17 0.036168
18 *399:B 0.036168
19 *214:19 0.255233
20 *214:20 0.255233
21 *214:21 0.061869
22 *214:22 0.061869
23 *214:23 0.120443
24 *214:24 0.010702
25 *214:25 0.006551
26 *214:26 0.982142
27 *214:27 0.982142
28 *214:28 0.031920
29 *214:29 0.031920
30 *214:30 0.223217
31 *214:31 0.223217
32 *214:32 0.237336
33 *508:A1 0.012591
34 *214:34 0.012591
35 *214:35 0.042000
36 *214:36 0.032308
37 *511:Y 0.013249
38 *214:38 0.019059

*RES
1 *214:1 *214:2 0.914000
2 *214:3 *214:4 10.785200
3 *214:5 *214:6 0.914000
4 *214:8 *214:7 12.064800
5 *509:A1 *214:9 0.365600
6 *214:11 *214:12 0.731200
7 *214:13 *214:14 0.182800
8 *214:16 *214:15 0.365600
9 *399:B *214:17 0.372912
10 *214:20 *214:19 3.290400
11 *214:21 *214:22 0.548400
12 *214:14 *214:23 1.279600
13 *214:1 *214:24 0.182800
14 *214:25 *214:23 0.182800
15 *214:26 *214:27 9.871200
16 *214:29 *214:28 0.365600
17 *214:30 *214:31 3.290400
18 *214:32 *214:13 2.376400
19 *508:A1 *214:34 0.159950
20 *214:35 *214:1 0.365600
21 *511:Y *214:36 0.182800
22 *214:36 *214:38 0.365600
23 *214:27 *214:30 2.000000
24 *214:20 *214:17 2.000000
25 *214:26 *214:29 2.000000
26 *214:22 *214:9 2.000000
27 *214:24 *214:21 2.000000
28 *214:11 *214:36 2.000000
29 *214:5 *214:34 2.000000
30 *214:16 *214:39 2.000000
31 *214:39 *214:38 2.000000
32 *214:32 *214:2 2.000000
33 *214:28 *214:12 2.000000
34 *214:4 *214:7 2.000000
35 *214:31 *214:3 2.000000
36 *214:19 *214:8 2.000000
37 *214:35 *214:6 2.000000
38 *214:25 *214:15 2.000000
*END

*D_NET *215 1.902869

*CONN
*I *512:Y O *C 17.900 17.100
*I *507:C0 I *C 11.700 17.690
*N *215:1 *C 18.100 15.300
*N *215:2 *C 18.100 14.900
*N *215:3 *C 12.300 15.300
*N *215:4 *C 18.100 15.300
*N *215:5 *C 18.100 14.900
*N *215:6 *C 18.100 17.100
*N *215:7 *C 12.300 15.500
*N *215:8 *C 12.300 15.300
*N *215:9 *C 11.700 15.500
*N *215:10 *C 12.300 15.500
*N *215:12 *C 17.900 17.300
*N *215:14 *C 11.700 15.500
*N *215:15 *C 18.100 14.900

*CAP
1 *215:1 0.041130
2 *215:2 0.041130
3 *215:3 0.528856
4 *215:4 0.528856
5 *215:5 0.132737
6 *215:6 0.142306
7 *215:7 0.030572
8 *215:8 0.030572
9 *215:9 0.059757
10 *215:10 0.059757
11 *512:Y 0.021182
12 *215:12 0.011612
13 *507:C0 0.137201
14 *215:14 0.137201

*RES
1 *215:2 *215:1 0.365600
2 *215:3 *215:4 5.301200
3 *215:5 *215:6 2.010800
4 *215:8 *215:7 0.182800
5 *215:9 *215:10 0.548400
6 *512:Y *215:12 0.182800
7 *215:14 *507:C0 2.001660
8 *512:Y *215:6 0.182800
9 *215:2 *215:15 2.000000
10 *215:3 *215:8 2.000000
11 *215:4 *215:1 2.000000
12 *215:9 *215:14 2.000000
13 *215:15 *215:5 2.000000
14 *215:7 *215:10 2.000000
*END

*D_NET *216 2.835192

*CONN
*I *513:Y O *C 20.300 17.690
*I *407:D I *C 14.700 9.300
*N *216:1 *C 21.500 17.100
*N *216:2 *C 21.500 14.500
*N *216:3 *C 14.900 9.700
*N *216:4 *C 14.700 9.700
*N *216:6 *C 20.500 17.690
*N *216:8 *C 14.900 11.700
*N *216:9 *C 20.500 17.300
*N *216:10 *C 20.500 17.100
*N *216:11 *C 20.500 17.300
*N *216:12 *C 18.100 14.500
*N *216:13 *C 18.100 11.700
*N *216:14 *C 21.500 17.100
*N *216:15 *C 21.500 14.500
*N *216:16 *C 18.100 14.500
*N *216:17 *C 18.100 11.700
*N *216:18 *C 14.900 11.700

*CAP
1 *216:1 0.153790
2 *216:2 0.153790
3 *216:3 0.190645
4 *216:4 0.032020
5 *513:Y 0.011244
6 *216:6 0.044353
7 *407:D 0.022451
8 *216:8 0.181076
9 *216:9 0.012693
10 *216:10 0.102515
11 *216:11 0.033110
12 *216:12 0.275884
13 *216:13 0.275884
14 *216:14 0.089821
15 *216:15 0.341157
16 *216:16 0.341157
17 *216:17 0.286801
18 *216:18 0.286801

*RES
1 *216:2 *216:1 2.376400
2 *216:4 *216:3 0.182800
3 *513:Y *216:6 0.182800
4 *407:D *216:4 0.365600
5 *216:3 *216:8 1.828000
6 *216:10 *216:9 0.182800
7 *216:11 *216:6 0.356460
8 *216:13 *216:12 2.559200
9 *216:10 *216:14 0.914000
10 *216:16 *216:15 3.107600
11 *216:18 *216:17 2.924800
12 *216:13 *216:17 2.000000
13 *216:12 *216:16 2.000000
14 *216:18 *216:8 2.000000
15 *216:9 *216:11 2.000000
16 *216:15 *216:2 2.000000
17 *216:14 *216:1 2.000000
*END

*D_NET *217 0.504706

*CONN
*I *513:B I *C 19.900 17.885
*I *514:Y O *C 22.500 17.900
*N *217:2 *C 19.900 17.900
*N *217:3 *C 19.900 17.900
*N *217:4 *C 22.500 17.900

*CAP
1 *513:B 0.007771
2 *217:2 0.007771
3 *217:3 0.244582
4 *217:4 0.244582

*RES
1 *513:B *217:2 0.013710
2 *217:3 *217:4 2.376400
3 *217:3 *217:2 2.000000
4 *217:4 *514:Y 2.000000
*END

*D_NET *218 2.927822

*CONN
*I *408:D I *C 19.100 9.300
*I *515:Y O *C 24.900 17.690
*N *218:1 *C 20.100 18.100
*N *218:2 *C 25.100 18.100
*N *218:3 *C 19.100 9.500
*N *218:4 *C 19.700 9.500
*N *218:6 *C 19.100 9.500
*N *218:7 *C 19.700 9.500
*N *218:8 *C 19.700 17.000
*N *218:9 *C 19.900 18.300
*N *218:10 *C 20.100 18.300
*N *218:11 *C 24.900 18.100
*N *218:13 *C 19.900 17.000
*N *218:14 *C 19.900 18.300
*N *218:15 *C 25.100 18.100

*CAP
1 *218:1 0.481394
2 *218:2 0.465510
3 *218:3 0.070932
4 *218:4 0.070932
5 *408:D 0.022410
6 *218:6 0.022410
7 *218:7 0.687663
8 *218:8 0.706642
9 *218:9 0.014885
10 *218:10 0.030769
11 *218:11 0.036805
12 *515:Y 0.023554
13 *218:13 0.149822
14 *218:14 0.130844
15 *218:15 0.013251

*RES
1 *218:1 *218:2 4.570000
2 *218:3 *218:4 0.548400
3 *408:D *218:6 0.182800
4 *218:7 *218:8 6.855000
5 *218:9 *218:10 0.182800
6 *515:Y *218:11 0.374740
7 *218:8 *218:13 0.182800
8 *218:13 *218:14 1.188200
9 *218:11 *218:15 0.182800
10 *218:1 *218:10 0.182800
11 *218:7 *218:4 2.000000
12 *218:14 *218:9 2.000000
13 *218:2 *218:15 2.000000
14 *218:3 *218:6 2.000000
*END

*D_NET *219 0.466406

*CONN
*I *515:B I *C 24.500 17.885
*I *516:Y O *C 27.100 17.900
*N *219:2 *C 24.500 17.900
*N *219:3 *C 24.500 17.900
*N *219:4 *C 27.100 17.900

*CAP
1 *515:B 0.008590
2 *219:2 0.008590
3 *219:3 0.224612
4 *219:4 0.224612

*RES
1 *515:B *219:2 0.013710
2 *219:3 *219:4 2.376400
3 *219:4 *516:Y 2.000000
4 *219:3 *219:2 2.000000
*END

*D_NET *220 3.123855

*CONN
*I *517:Y O *C 27.900 17.700
*I *430:D I *C 15.700 10.295
*N *220:2 *C 27.900 17.890
*N *220:3 *C 24.100 17.700
*N *220:4 *C 27.900 17.700
*N *220:5 *C 22.900 17.100
*N *220:6 *C 24.100 17.100
*N *220:7 *C 16.300 12.500
*N *220:8 *C 22.700 12.500
*N *220:9 *C 16.300 11.100
*N *220:10 *C 16.300 12.500
*N *220:11 *C 22.700 12.500
*N *220:12 *C 22.700 17.300
*N *220:13 *C 24.100 17.100
*N *220:14 *C 24.100 17.700
*N *220:15 *C 22.900 17.300
*N *220:16 *C 22.700 17.300
*N *220:17 *C 15.700 11.100

*CAP
1 *517:Y 0.028733
2 *220:2 0.028733
3 *220:3 0.304577
4 *220:4 0.304577
5 *220:5 0.129224
6 *220:6 0.120226
7 *220:7 0.563290
8 *220:8 0.563290
9 *220:9 0.092021
10 *220:10 0.069693
11 *220:11 0.332773
12 *220:12 0.332773
13 *220:13 0.052290
14 *220:14 0.052290
15 *220:15 0.027039
16 *220:16 0.018042
17 *220:17 0.063308
18 *430:D 0.040980

*RES
1 *517:Y *220:2 0.173660
2 *220:3 *220:4 3.473200
3 *220:5 *220:6 1.096800
4 *220:7 *220:8 5.849600
5 *220:9 *220:10 1.279600
6 *220:11 *220:12 4.387200
7 *220:13 *220:14 0.548400
8 *220:5 *220:15 0.182800
9 *220:16 *220:15 0.182800
10 *220:17 *220:9 0.548400
11 *430:D *220:17 0.735770
12 *220:6 *220:13 2.000000
13 *220:3 *220:14 2.000000
14 *220:4 *517:Y 2.000000
15 *220:8 *220:11 2.000000
16 *220:7 *220:10 2.000000
17 *220:16 *220:12 2.000000
*END

*D_NET *221 0.308922

*CONN
*I *517:A1 I *C 28.500 17.325
*I *518:Y O *C 29.100 17.300
*N *221:2 *C 28.500 17.900
*N *221:3 *C 29.100 17.900
*N *221:5 *C 28.500 17.900
*N *221:6 *C 29.100 17.900

*CAP
1 *517:A1 0.045444
2 *221:2 0.045444
3 *221:3 0.043296
4 *518:Y 0.043296
5 *221:5 0.065722
6 *221:6 0.065722

*RES
1 *517:A1 *221:2 0.525550
2 *518:Y *221:3 0.548400
3 *221:5 *221:6 0.548400
4 *221:6 *221:3 2.000000
5 *221:5 *221:2 2.000000
*END

*D_NET *222 0.611265

*CONN
*I *517:B0 I *C 28.100 17.685
*I *519:Y O *C 30.500 17.300
*N *222:1 *C 28.100 18.100
*N *222:2 *C 30.500 18.100
*N *222:4 *C 28.100 18.100
*N *222:5 *C 30.500 18.100

*CAP
1 *222:1 0.196140
2 *222:2 0.196140
3 *517:B0 0.031143
4 *222:4 0.031143
5 *222:5 0.078350
6 *519:Y 0.078350

*RES
1 *222:1 *222:2 2.193600
2 *517:B0 *222:4 0.379310
3 *519:Y *222:5 0.731200
4 *222:2 *222:5 2.000000
5 *222:1 *222:4 2.000000
*END

*D_NET *223 0.889994

*CONN
*I *520:Y O *C 30.900 17.500
*I *517:C0 I *C 27.700 17.500
*N *223:1 *C 27.700 18.500
*N *223:2 *C 31.100 18.500
*N *223:4 *C 30.900 17.300
*N *223:5 *C 31.100 18.500
*N *223:6 *C 31.100 17.500
*N *223:8 *C 27.700 18.500

*CAP
1 *223:1 0.303050
2 *223:2 0.303050
3 *520:Y 0.037737
4 *223:4 0.024809
5 *223:5 0.056924
6 *223:6 0.069852
7 *517:C0 0.047286
8 *223:8 0.047286

*RES
1 *223:1 *223:2 3.107600
2 *223:4 *520:Y 0.182800
3 *223:6 *223:5 0.914000
4 *520:Y *223:6 0.182800
5 *517:C0 *223:8 0.914000
6 *223:2 *223:5 2.000000
7 *223:1 *223:8 2.000000
*END

*D_NET *224 3.640322

*CONN
*I *521:Y O *C 31.700 17.500
*I *431:D I *C 20.100 10.295
*N *224:1 *C 31.500 13.700
*N *224:2 *C 31.500 13.900
*N *224:3 *C 23.500 13.700
*N *224:4 *C 31.700 17.000
*N *224:5 *C 31.700 17.500
*N *224:6 *C 32.100 16.500
*N *224:7 *C 32.100 17.000
*N *224:8 *C 20.100 11.300
*N *224:9 *C 23.500 11.300
*N *224:10 *C 31.500 16.500
*N *224:12 *C 31.700 17.890
*N *224:14 *C 20.100 11.300
*N *224:15 *C 31.500 13.900
*N *224:16 *C 23.500 11.300
*N *224:17 *C 23.500 13.700
*N *224:18 *C 31.700 17.500

*CAP
1 *224:1 0.875371
2 *224:2 0.015082
3 *224:3 0.860289
4 *224:4 0.050559
5 *224:5 0.039467
6 *224:6 0.054187
7 *224:7 0.047784
8 *224:8 0.266909
9 *224:9 0.266909
10 *224:10 0.260199
11 *521:Y 0.043584
12 *224:12 0.043584
13 *431:D 0.097322
14 *224:14 0.097322
15 *224:15 0.242704
16 *224:16 0.189524
17 *224:17 0.189524

*RES
1 *224:1 *224:2 0.182800
2 *224:3 *224:1 7.312000
3 *224:4 *224:5 0.457000
4 *224:6 *224:7 0.457000
5 *224:8 *224:9 3.107600
6 *224:10 *224:6 0.548400
7 *521:Y *224:12 0.356460
8 *224:4 *224:7 0.365600
9 *431:D *224:14 0.918570
10 *224:15 *224:10 2.376400
11 *224:16 *224:17 2.193600
12 *224:3 *224:17 2.000000
13 *224:2 *224:15 2.000000
14 *224:8 *224:14 2.000000
15 *224:5 *224:18 2.000000
16 *224:18 *521:Y 2.000000
17 *224:16 *224:9 2.000000
*END

*D_NET *225 0.324693

*CONN
*I *522:Y O *C 32.900 17.300
*I *521:A1 I *C 32.300 17.690
*N *225:1 *C 33.100 17.900
*N *225:2 *C 33.100 17.685
*N *225:3 *C 32.300 17.900
*N *225:4 *C 33.100 17.900
*N *225:5 *C 32.900 17.685
*N *225:8 *C 32.300 17.900

*CAP
1 *225:1 0.023083
2 *225:2 0.033390
3 *225:3 0.080956
4 *225:4 0.080956
5 *225:5 0.042951
6 *522:Y 0.032643
7 *521:A1 0.015357
8 *225:8 0.015357

*RES
1 *225:2 *225:1 0.196510
2 *225:3 *225:4 0.731200
3 *522:Y *225:5 0.351890
4 *225:5 *225:2 0.182800
5 *521:A1 *225:8 0.191940
6 *225:3 *225:8 2.000000
7 *225:4 *225:1 2.000000
*END

*D_NET *226 0.632669

*CONN
*I *521:B0 I *C 31.900 17.325
*I *523:Y O *C 34.300 17.300
*N *226:2 *C 31.900 17.900
*N *226:3 *C 31.900 18.300
*N *226:4 *C 34.300 18.300
*N *226:5 *C 34.300 18.300
*N *226:7 *C 31.900 17.900
*N *226:8 *C 31.900 18.300
*N *226:9 *C 31.900 17.900

*CAP
1 *521:B0 0.051040
2 *226:2 0.051040
3 *226:3 0.167785
4 *226:4 0.167785
5 *226:5 0.072374
6 *523:Y 0.072374
7 *226:7 0.025136
8 *226:8 0.025136

*RES
1 *521:B0 *226:2 0.525550
2 *226:3 *226:4 2.193600
3 *523:Y *226:5 0.914000
4 *226:7 *226:8 0.365600
5 *226:7 *226:9 2.000000
6 *226:4 *226:5 2.000000
7 *226:8 *226:3 2.000000
8 *226:9 *226:2 2.000000
*END

*D_NET *227 0.588794

*CONN
*I *524:Y O *C 34.700 17.300
*I *521:C0 I *C 31.500 17.685
*N *227:1 *C 34.700 18.100
*N *227:3 *C 32.900 18.300
*N *227:4 *C 32.900 18.100
*N *227:6 *C 31.500 18.300
*N *227:7 *C 32.900 18.100
*N *227:8 *C 34.700 18.100

*CAP
1 *227:1 0.052593
2 *524:Y 0.052593
3 *227:3 0.056682
4 *227:4 0.008098
5 *521:C0 0.037338
6 *227:6 0.085922
7 *227:7 0.147784
8 *227:8 0.147784

*RES
1 *524:Y *227:1 0.731200
2 *227:4 *227:3 0.182800
3 *521:C0 *227:6 0.562110
4 *227:7 *227:8 1.645200
5 *227:6 *227:3 1.279600
6 *227:8 *227:1 2.000000
7 *227:7 *227:4 2.000000
*END

*D_NET *228 5.911068

*CONN
*I *441:D I *C 3.300 12.100
*I *525:Y O *C 37.100 17.700
*N *228:1 *C 4.100 16.700
*N *228:2 *C 4.100 19.700
*N *228:4 *C 3.300 12.500
*N *228:6 *C 37.100 17.690
*N *228:7 *C 4.700 19.700
*N *228:8 *C 4.700 22.700
*N *228:9 *C 4.100 19.700
*N *228:10 *C 4.700 19.700
*N *228:11 *C 36.900 17.700
*N *228:12 *C 37.100 17.700
*N *228:13 *C 4.700 22.700
*N *228:14 *C 36.900 22.700
*N *228:15 *C 3.700 12.500
*N *228:16 *C 3.700 16.700
*N *228:17 *C 36.900 22.700
*N *228:18 *C 36.900 17.700

*CAP
1 *228:1 0.195494
2 *228:2 0.179545
3 *441:D 0.033953
4 *228:4 0.049902
5 *525:Y 0.007412
6 *228:6 0.007412
7 *228:7 0.266385
8 *228:8 0.266385
9 *228:9 0.062721
10 *228:10 0.062721
11 *228:11 0.024765
12 *228:12 0.024765
13 *228:13 1.695130
14 *228:14 1.695130
15 *228:15 0.200477
16 *228:16 0.200477
17 *228:17 0.469197
18 *228:18 0.469197

*RES
1 *228:1 *228:2 2.742000
2 *441:D *228:4 0.365600
3 *228:6 *525:Y 0.009140
4 *228:7 *228:8 2.742000
5 *228:9 *228:10 0.548400
6 *228:11 *228:12 0.182800
7 *228:13 *228:14 29.430800
8 *228:15 *228:16 3.838800
9 *228:16 *228:1 0.365600
10 *228:4 *228:15 0.365600
11 *228:18 *228:17 4.570000
12 *228:13 *228:8 2.000000
13 *228:9 *228:2 2.000000
14 *228:7 *228:10 2.000000
15 *228:14 *228:17 2.000000
16 *228:18 *228:11 2.000000
17 *228:12 *525:Y 2.000000
*END

*D_NET *229 0.422837

*CONN
*I *525:B I *C 36.700 17.885
*I *526:Y O *C 39.300 17.900
*N *229:2 *C 36.700 17.900
*N *229:3 *C 36.700 17.900
*N *229:4 *C 39.300 17.900

*CAP
1 *525:B 0.007654
2 *229:2 0.007654
3 *229:3 0.203764
4 *229:4 0.203764

*RES
1 *525:B *229:2 0.013710
2 *229:3 *229:4 2.376400
3 *229:3 *229:2 2.000000
4 *229:4 *526:Y 2.000000
*END

*D_NET *230 3.827242

*CONN
*I *452:D I *C 21.300 12.300
*I *527:Y O *C 4.700 18.892
*N *230:1 *C 5.300 18.100
*N *230:2 *C 5.300 17.000
*N *230:4 *C 21.300 12.100
*N *230:5 *C 4.700 18.100
*N *230:6 *C 5.300 18.100
*N *230:7 *C 18.900 12.300
*N *230:8 *C 21.300 12.300
*N *230:9 *C 5.500 17.000
*N *230:10 *C 5.500 14.900
*N *230:11 *C 18.900 12.900
*N *230:12 *C 18.900 12.300
*N *230:13 *C 16.900 12.700
*N *230:14 *C 17.000 12.700
*N *230:15 *C 17.000 12.900
*N *230:16 *C 18.900 12.900
*N *230:17 *C 16.900 15.100
*N *230:18 *C 16.900 12.700
*N *230:19 *C 5.500 14.900
*N *230:20 *C 16.900 14.900
*N *230:22 *C 4.700 18.100
*N *230:23 *C 16.900 15.100

*CAP
1 *230:1 0.096657
2 *230:2 0.105447
3 *452:D 0.010730
4 *230:4 0.010730
5 *230:5 0.070303
6 *230:6 0.070303
7 *230:7 0.248722
8 *230:8 0.248722
9 *230:9 0.144750
10 *230:10 0.135960
11 *230:11 0.028932
12 *230:12 0.028932
13 *230:13 0.014840
14 *230:14 0.023837
15 *230:15 0.176148
16 *230:16 0.167151
17 *230:17 0.200333
18 *230:18 0.200333
19 *230:19 0.837220
20 *230:20 0.852302
21 *527:Y 0.069904
22 *230:22 0.069904
23 *230:23 0.015082

*RES
1 *230:2 *230:1 1.005400
2 *230:4 *452:D 0.182800
3 *230:5 *230:6 0.548400
4 *230:7 *230:8 2.193600
5 *230:10 *230:9 1.919400
6 *230:12 *230:11 0.548400
7 *230:13 *230:14 0.091400
8 *230:15 *230:16 1.736600
9 *230:18 *230:17 2.193600
10 *230:2 *230:9 0.182800
11 *230:19 *230:20 10.419600
12 *230:22 *527:Y 0.723888
13 *230:14 *230:15 0.182800
14 *230:20 *230:23 0.182800
15 *230:7 *230:12 2.000000
16 *230:1 *230:6 2.000000
17 *230:5 *230:22 2.000000
18 *230:8 *452:D 2.000000
19 *230:19 *230:10 2.000000
20 *230:23 *230:17 2.000000
21 *230:16 *230:11 2.000000
22 *230:18 *230:13 2.000000
*END

*D_NET *231 0.361007

*CONN
*I *527:B I *C 4.300 18.695
*I *528:Y O *C 6.900 18.675
*N *231:2 *C 4.300 18.675
*N *231:3 *C 4.300 18.675
*N *231:4 *C 6.900 18.675

*CAP
1 *527:B 0.011889
2 *231:2 0.011889
3 *231:3 0.168614
4 *231:4 0.168614

*RES
1 *231:2 *527:B 0.018280
2 *231:3 *231:4 2.376400
3 *231:4 *528:Y 2.000000
4 *231:3 *231:2 2.000000
*END

*D_NET *232 4.856314

*CONN
*I *529:Y O *C 7.700 18.510
*I *453:D I *C 25.700 12.100
*N *232:1 *C 26.300 17.500
*N *232:2 *C 26.300 14.900
*N *232:4 *C 7.700 18.500
*N *232:5 *C 25.700 14.900
*N *232:7 *C 7.700 17.500
*N *232:8 *C 26.300 17.500
*N *232:9 *C 26.300 14.900
*N *232:10 *C 25.700 14.900
*N *232:11 *C 7.700 18.500
*N *232:12 *C 7.700 17.500
*N *232:13 *C 7.700 18.500

*CAP
1 *232:1 0.221862
2 *232:2 0.221862
3 *529:Y 0.004948
4 *232:4 0.004948
5 *232:5 0.244598
6 *453:D 0.244598
7 *232:7 1.804895
8 *232:8 1.804895
9 *232:9 0.070303
10 *232:10 0.070303
11 *232:11 0.081552
12 *232:12 0.081552

*RES
1 *232:2 *232:1 2.376400
2 *232:4 *529:Y 0.009140
3 *453:D *232:5 2.559200
4 *232:7 *232:8 17.000400
5 *232:10 *232:9 0.548400
6 *232:12 *232:11 0.914000
7 *232:13 *232:4 2.000000
8 *232:7 *232:12 2.000000
9 *232:2 *232:9 2.000000
10 *232:10 *232:5 2.000000
11 *232:11 *232:13 2.000000
12 *232:8 *232:1 2.000000
*END

*D_NET *233 0.272788

*CONN
*I *530:Y O *C 8.900 19.092
*I *529:A1 I *C 8.300 18.892
*N *233:1 *C 8.300 19.700
*N *233:2 *C 8.900 19.700

*CAP
1 *233:1 0.109917
2 *233:2 0.070209
3 *530:Y 0.026477
4 *529:A1 0.066185

*RES
1 *233:1 *233:2 0.548400
2 *530:Y *233:2 0.555712
3 *529:A1 *233:1 0.738512
*END

*D_NET *234 0.508189

*CONN
*I *531:Y O *C 10.300 19.100
*I *529:B0 I *C 7.900 18.715
*N *234:1 *C 8.900 19.100
*N *234:2 *C 10.300 19.100
*N *234:3 *C 7.900 18.900
*N *234:4 *C 8.900 18.900
*N *234:5 *C 8.900 18.900
*N *234:6 *C 8.900 19.100
*N *234:8 *C 10.300 19.092
*N *234:10 *C 7.900 18.900

*CAP
1 *234:1 0.106507
2 *234:2 0.106507
3 *234:3 0.088942
4 *234:4 0.088942
5 *234:5 0.030572
6 *234:6 0.030572
7 *531:Y 0.008068
8 *234:8 0.008068
9 *529:B0 0.020006
10 *234:10 0.020006

*RES
1 *234:1 *234:2 1.279600
2 *234:3 *234:4 0.914000
3 *234:5 *234:6 0.182800
4 *234:8 *531:Y 0.007312
5 *529:B0 *234:10 0.169090
6 *234:2 *531:Y 2.000000
7 *234:5 *234:4 2.000000
8 *234:6 *234:1 2.000000
9 *234:3 *234:10 2.000000
*END

*D_NET *235 0.586302

*CONN
*I *532:Y O *C 10.700 19.092
*I *529:C0 I *C 7.500 18.895
*N *235:1 *C 7.500 19.500
*N *235:2 *C 10.700 19.500
*N *235:3 *C 10.700 19.500
*N *235:6 *C 7.500 19.500

*CAP
1 *235:1 0.237452
2 *235:2 0.237452
3 *235:3 0.023427
4 *532:Y 0.023427
5 *529:C0 0.032272
6 *235:6 0.032272

*RES
1 *235:1 *235:2 2.924800
2 *532:Y *235:3 0.372912
3 *529:C0 *235:6 0.552970
4 *235:1 *235:6 2.000000
5 *235:2 *235:3 2.000000
*END

*D_NET *236 4.774111

*CONN
*I *533:Y O *C 11.500 18.692
*I *456:D I *C 31.700 12.300
*N *236:1 *C 24.300 12.300
*N *236:2 *C 31.700 12.300
*N *236:4 *C 11.500 18.700
*N *236:5 *C 11.700 18.700
*N *236:6 *C 24.300 18.700
*N *236:7 *C 24.300 18.500
*N *236:8 *C 24.300 12.300
*N *236:9 *C 11.500 18.700
*N *236:10 *C 11.700 18.700
*N *236:12 *C 31.700 12.100
*N *236:13 *C 24.300 18.500
*N *236:14 *C 11.700 18.700

*CAP
1 *236:1 0.619144
2 *236:2 0.619144
3 *533:Y 0.006325
4 *236:4 0.006325
5 *236:5 1.105871
6 *236:6 1.122639
7 *236:7 0.602996
8 *236:8 0.602996
9 *236:9 0.024596
10 *236:10 0.024596
11 *456:D 0.011355
12 *236:12 0.011355
13 *236:13 0.016768

*RES
1 *236:1 *236:2 6.763600
2 *533:Y *236:4 0.007312
3 *236:5 *236:6 11.516400
4 *236:8 *236:7 5.666800
5 *236:9 *236:10 0.182800
6 *236:12 *456:D 0.182800
7 *236:13 *236:6 0.182800
8 *236:5 *236:14 2.000000
9 *236:14 *236:10 2.000000
10 *236:8 *236:1 2.000000
11 *236:9 *236:4 2.000000
12 *236:2 *456:D 2.000000
13 *236:13 *236:7 2.000000
*END

*D_NET *237 0.167651

*CONN
*I *533:A1 I *C 12.100 19.075
*I *534:Y O *C 12.700 19.092
*N *237:2 *C 12.100 19.700
*N *237:3 *C 12.700 19.700

*CAP
1 *533:A1 0.037736
2 *237:2 0.060064
3 *237:3 0.046089
4 *534:Y 0.023762

*RES
1 *533:A1 *237:2 0.571250
2 *534:Y *237:3 0.555712
3 *237:2 *237:3 0.548400
*END

*D_NET *238 0.654795

*CONN
*I *535:Y O *C 14.100 19.092
*I *533:B0 I *C 11.700 18.715
*N *238:1 *C 11.900 19.700
*N *238:2 *C 14.100 19.700
*N *238:3 *C 11.900 19.300
*N *238:4 *C 11.900 19.700
*N *238:5 *C 14.100 19.700
*N *238:7 *C 11.700 19.300

*CAP
1 *238:1 0.219211
2 *238:2 0.219211
3 *238:3 0.044386
4 *238:4 0.034817
5 *238:5 0.031847
6 *535:Y 0.031847
7 *238:7 0.041523
8 *533:B0 0.031954

*RES
1 *238:1 *238:2 2.010800
2 *238:3 *238:4 0.365600
3 *535:Y *238:5 0.555712
4 *238:7 *238:3 0.182800
5 *533:B0 *238:7 0.534690
6 *238:2 *238:5 2.000000
7 *238:1 *238:4 2.000000
*END

*D_NET *239 0.673273

*CONN
*I *536:Y O *C 14.500 19.300
*I *533:C0 I *C 11.300 19.075
*N *239:1 *C 11.300 19.500
*N *239:2 *C 12.500 19.500
*N *239:3 *C 12.500 19.300
*N *239:5 *C 14.500 19.092
*N *239:7 *C 11.300 19.500
*N *239:8 *C 14.500 19.300

*CAP
1 *239:1 0.084047
2 *239:2 0.093044
3 *239:3 0.191433
4 *536:Y 0.023007
5 *239:5 0.023007
6 *533:C0 0.038149
7 *239:7 0.038149
8 *239:8 0.182436

*RES
1 *239:1 *239:2 1.096800
2 *239:3 *239:2 0.182800
3 *239:5 *536:Y 0.190112
4 *533:C0 *239:7 0.388450
5 *239:3 *239:8 1.828000
6 *239:8 *536:Y 2.000000
7 *239:1 *239:7 2.000000
*END

*D_NET *240 2.849397

*CONN
*I *459:D I *C 3.300 13.095
*I *537:Y O *C 16.500 18.515
*N *240:1 *C 3.900 18.900
*N *240:2 *C 12.100 18.900
*N *240:3 *C 3.300 13.700
*N *240:4 *C 3.900 13.700
*N *240:5 *C 12.100 18.700
*N *240:6 *C 16.100 18.700
*N *240:7 *C 3.900 13.700
*N *240:8 *C 3.900 18.900
*N *240:9 *C 12.100 18.900
*N *240:10 *C 12.100 18.700
*N *240:11 *C 16.100 18.515
*N *240:12 *C 16.500 18.515
*N *240:14 *C 3.300 13.700

*CAP
1 *240:1 0.553974
2 *240:2 0.553974
3 *240:3 0.043544
4 *240:4 0.043544
5 *240:5 0.325960
6 *240:6 0.334508
7 *240:7 0.411972
8 *240:8 0.411972
9 *240:9 0.019338
10 *240:10 0.019338
11 *240:11 0.030953
12 *240:12 0.022405
13 *459:D 0.038958
14 *240:14 0.038958

*RES
1 *240:1 *240:2 7.494800
2 *240:3 *240:4 0.548400
3 *240:5 *240:6 3.656000
4 *240:7 *240:8 4.752800
5 *240:10 *240:9 0.182800
6 *240:11 *240:12 0.365600
7 *240:11 *240:6 0.169090
8 *459:D *240:14 0.552970
9 *240:10 *240:5 2.000000
10 *240:1 *240:8 2.000000
11 *240:12 *537:Y 2.000000
12 *240:3 *240:14 2.000000
13 *240:7 *240:4 2.000000
14 *240:2 *240:9 2.000000
*END

*D_NET *241 4.318672

*CONN
*I *538:Y O *C 17.500 19.092
*I *497:A0 I *C 36.900 16.300
*I *537:A0 I *C 15.900 18.710
*N *241:1 *C 25.900 16.500
*N *241:2 *C 36.700 16.500
*N *241:3 *C 25.900 21.100
*N *241:4 *C 25.900 16.500
*N *241:5 *C 17.500 19.500
*N *241:6 *C 17.500 21.100
*N *241:7 *C 36.700 16.300
*N *241:8 *C 36.900 16.300
*N *241:9 *C 15.900 19.500
*N *241:10 *C 17.500 19.500
*N *241:12 *C 36.700 16.500
*N *241:13 *C 36.700 16.300
*N *241:15 *C 36.900 15.910
*N *241:16 *C 17.900 21.100
*N *241:17 *C 17.900 21.100
*N *241:18 *C 25.900 21.100
*N *241:20 *C 15.900 19.500

*CAP
1 *241:1 0.908541
2 *241:2 0.908541
3 *241:3 0.391283
4 *241:4 0.391283
5 *241:5 0.091377
6 *241:6 0.081762
7 *241:7 0.022695
8 *241:8 0.022695
9 *241:9 0.153618
10 *241:10 0.153618
11 *538:Y 0.025563
12 *241:12 0.023262
13 *241:13 0.023262
14 *497:A0 0.036371
15 *241:15 0.036371
16 *241:16 0.015949
17 *241:17 0.453041
18 *241:18 0.453041
19 *537:A0 0.063198
20 *241:20 0.063198

*RES
1 *241:1 *241:2 9.871200
2 *241:4 *241:3 4.204400
3 *241:5 *241:6 1.462400
4 *241:7 *241:8 0.182800
5 *241:9 *241:10 1.462400
6 *538:Y *241:5 0.372912
7 *241:13 *241:12 0.182800
8 *241:15 *497:A0 0.356460
9 *241:6 *241:16 0.365600
10 *241:17 *241:18 7.312000
11 *537:A0 *241:20 0.722060
12 *241:9 *241:20 2.000000
13 *241:3 *241:18 2.000000
14 *241:10 *241:5 2.000000
15 *241:8 *497:A0 2.000000
16 *241:13 *241:7 2.000000
17 *241:2 *241:12 2.000000
18 *241:17 *241:16 2.000000
19 *241:1 *241:4 2.000000
*END

*D_NET *242 0.782787

*CONN
*I *539:Y O *C 18.900 19.095
*I *537:B0 I *C 16.300 18.895
*N *242:1 *C 16.300 19.300
*N *242:2 *C 17.900 19.300
*N *242:3 *C 18.900 18.500
*N *242:5 *C 17.900 19.300
*N *242:6 *C 17.900 18.500
*N *242:7 *C 17.900 18.500
*N *242:8 *C 18.900 18.500
*N *242:10 *C 16.300 19.300

*CAP
1 *242:1 0.163514
2 *242:2 0.163514
3 *242:3 0.041899
4 *539:Y 0.041899
5 *242:5 0.055034
6 *242:6 0.055034
7 *242:7 0.108589
8 *242:8 0.108589
9 *537:B0 0.022357
10 *242:10 0.022357

*RES
1 *242:1 *242:2 1.462400
2 *242:3 *539:Y 0.543830
3 *242:6 *242:5 0.731200
4 *242:7 *242:8 0.914000
5 *537:B0 *242:10 0.370170
6 *242:7 *242:6 2.000000
7 *242:8 *242:3 2.000000
8 *242:2 *242:5 2.000000
9 *242:1 *242:10 2.000000
*END

*D_NET *243 0.228070

*CONN
*I *539:B0 I *C 18.700 18.710
*I *540:Z O *C 19.900 19.300
*N *243:2 *C 18.700 19.300
*N *243:4 *C 19.900 19.092
*N *243:5 *C 18.700 19.300
*N *243:6 *C 19.900 19.300

*CAP
1 *539:B0 0.042712
2 *243:2 0.042712
3 *540:Z 0.011170
4 *243:4 0.011170
5 *243:5 0.060152
6 *243:6 0.060152

*RES
1 *539:B0 *243:2 0.539260
2 *243:4 *540:Z 0.190112
3 *243:5 *243:6 1.096800
4 *243:6 *540:Z 2.000000
5 *243:5 *243:2 2.000000
*END

*D_NET *244 3.600755

*CONN
*I *460:D I *C 7.700 13.095
*I *541:Y O *C 21.900 18.692
*N *244:2 *C 7.700 13.900
*N *244:3 *C 8.100 14.300
*N *244:4 *C 22.500 14.300
*N *244:5 *C 8.100 13.900
*N *244:6 *C 8.100 14.300
*N *244:7 *C 21.900 17.000
*N *244:9 *C 22.500 17.000
*N *244:10 *C 21.900 17.000
*N *244:11 *C 22.500 14.300
*N *244:12 *C 22.500 17.000

*CAP
1 *460:D 0.055804
2 *244:2 0.071752
3 *244:3 1.266490
4 *244:4 1.266490
5 *244:5 0.034030
6 *244:6 0.018081
7 *244:7 0.137618
8 *541:Y 0.137618
9 *244:9 0.037511
10 *244:10 0.037511
11 *244:11 0.268925
12 *244:12 0.268925

*RES
1 *460:D *244:2 0.735770
2 *244:3 *244:4 13.161600
3 *244:5 *244:6 0.365600
4 *244:7 *541:Y 1.546488
5 *244:2 *244:5 0.365600
6 *244:10 *244:9 0.548400
7 *244:11 *244:12 2.467800
8 *244:12 *244:9 2.000000
9 *244:10 *244:7 2.000000
10 *244:11 *244:4 2.000000
11 *244:3 *244:6 2.000000
*END

*D_NET *245 3.058935

*CONN
*I *542:Y O *C 23.900 18.692
*I *461:D I *C 12.100 13.095
*N *245:1 *C 12.100 14.300
*N *245:2 *C 12.300 14.300
*N *245:3 *C 23.100 15.300
*N *245:4 *C 23.100 17.900
*N *245:5 *C 12.300 15.300
*N *245:6 *C 23.100 15.300
*N *245:7 *C 23.900 17.900
*N *245:9 *C 23.100 17.900
*N *245:10 *C 23.900 17.900
*N *245:11 *C 12.300 15.300

*CAP
1 *245:1 0.136388
2 *245:2 0.069706
3 *245:3 0.183588
4 *245:4 0.183588
5 *245:5 1.009228
6 *245:6 1.009228
7 *245:7 0.065944
8 *542:Y 0.065944
9 *245:9 0.074182
10 *245:10 0.074182
11 *245:11 0.060137
12 *461:D 0.126819

*RES
1 *245:1 *245:2 0.182800
2 *245:3 *245:4 2.376400
3 *245:5 *245:6 9.871200
4 *245:7 *542:Y 0.723888
5 *245:9 *245:10 0.731200
6 *245:2 *245:11 0.914000
7 *461:D *245:1 1.101370
8 *245:5 *245:11 2.000000
9 *245:9 *245:4 2.000000
10 *245:6 *245:3 2.000000
11 *245:10 *245:7 2.000000
*END

*D_NET *246 2.226639

*CONN
*I *462:D I *C 16.500 13.095
*I *543:Y O *C 24.900 18.675
*N *246:1 *C 20.100 13.100
*N *246:2 *C 20.100 13.095
*N *246:3 *C 24.300 18.300
*N *246:4 *C 24.900 18.300
*N *246:5 *C 16.500 13.100
*N *246:6 *C 24.300 13.095
*N *246:8 *C 16.500 13.100
*N *246:10 *C 24.300 13.095

*CAP
1 *246:1 0.338120
2 *246:2 0.313599
3 *246:3 0.437521
4 *246:4 0.049205
5 *246:5 0.334971
6 *246:6 0.407701
7 *462:D 0.007843
8 *246:8 0.007843
9 *543:Y 0.019385
10 *246:10 0.310450

*RES
1 *246:2 *246:1 0.004570
2 *246:3 *246:4 0.548400
3 *246:5 *246:1 3.290400
4 *246:6 *246:3 4.757370
5 *462:D *246:8 0.004570
6 *246:4 *543:Y 0.342750
7 *246:2 *246:10 3.838800
8 *246:5 *246:8 2.000000
9 *246:10 *246:6 2.000000
*END

*D_NET *247 1.890236

*CONN
*I *543:A1 I *C 24.500 18.915
*I *544:A0 I *C 25.100 18.900
*I *550:Y O *C 35.300 18.900
*N *247:2 *C 24.500 18.900
*N *247:4 *C 25.100 18.895
*N *247:5 *C 24.500 18.900
*N *247:6 *C 25.100 18.900
*N *247:8 *C 35.300 19.095
*N *247:9 *C 26.300 18.900
*N *247:10 *C 34.300 18.900
*N *247:11 *C 35.300 18.900
*N *247:12 *C 34.300 18.500
*N *247:13 *C 34.300 18.900
*N *247:14 *C 26.300 18.900
*N *247:15 *C 26.300 18.500
*N *247:16 *C 26.300 18.500
*N *247:17 *C 34.300 18.500

*CAP
1 *543:A1 0.006958
2 *247:2 0.006958
3 *544:A0 0.006278
4 *247:4 0.006278
5 *247:5 0.044166
6 *247:6 0.147660
7 *550:Y 0.022409
8 *247:8 0.022409
9 *247:9 0.103494
10 *247:10 0.067407
11 *247:11 0.067407
12 *247:12 0.047286
13 *247:13 0.047286
14 *247:14 0.046524
15 *247:15 0.046524
16 *247:16 0.600596
17 *247:17 0.600596

*RES
1 *247:2 *543:A1 0.013710
2 *247:4 *544:A0 0.004570
3 *247:5 *247:6 0.548400
4 *550:Y *247:8 0.178230
5 *247:6 *247:9 1.096800
6 *247:10 *247:11 0.914000
7 *247:12 *247:13 0.365600
8 *247:15 *247:14 0.365600
9 *247:16 *247:17 7.312000
10 *247:14 *247:9 2.000000
11 *247:11 *550:Y 2.000000
12 *247:5 *247:2 2.000000
13 *247:16 *247:15 2.000000
14 *247:6 *544:A0 2.000000
15 *247:17 *247:12 2.000000
16 *247:13 *247:10 2.000000
*END

*D_NET *248 6.225835

*CONN
*I *349:Y O *C 33.100 5.095
*I *364:B I *C 14.700 6.500
*I *544:A2 I *C 25.700 18.692
*I *546:A1N I *C 28.300 18.710
*N *248:1 *C 25.700 18.100
*N *248:2 *C 25.500 18.100
*N *248:3 *C 33.100 2.900
*N *248:5 *C 14.700 5.700
*N *248:7 *C 19.700 5.900
*N *248:8 *C 17.000 5.900
*N *248:9 *C 28.100 19.700
*N *248:10 *C 25.700 19.700
*N *248:11 *C 25.700 19.700
*N *248:13 *C 28.100 18.710
*N *248:14 *C 28.100 19.700
*N *248:15 *C 17.000 5.700
*N *248:16 *C 25.500 2.900
*N *248:17 *C 33.100 2.900
*N *248:18 *C 25.700 18.100
*N *248:19 *C 19.700 2.900
*N *248:20 *C 19.700 2.900
*N *248:21 *C 19.700 5.900
*N *248:23 *C 14.700 5.700
*N *248:24 *C 25.500 18.100
*N *248:25 *C 25.500 2.900

*CAP
1 *248:1 0.026598
2 *248:2 0.026598
3 *248:3 0.221082
4 *349:Y 0.221082
5 *248:5 0.044950
6 *364:B 0.044950
7 *248:7 0.132266
8 *248:8 0.141263
9 *248:9 0.172751
10 *248:10 0.172751
11 *248:11 0.078253
12 *544:A2 0.141939
13 *248:13 0.056789
14 *248:14 0.047220
15 *248:15 0.197850
16 *248:16 1.011364
17 *248:17 0.569867
18 *248:18 0.063686
19 *248:19 0.441497
20 *248:20 0.106759
21 *248:21 0.106759
22 *546:A1N 0.009569
23 *248:23 0.188852
24 *248:24 1.000570
25 *248:25 1.000570

*RES
1 *248:2 *248:1 0.182800
2 *248:3 *349:Y 2.006230
3 *248:5 *364:B 0.731200
4 *248:8 *248:7 2.467800
5 *248:10 *248:9 2.193600
6 *544:A2 *248:11 0.921312
7 *248:13 *248:14 0.904860
8 *248:15 *248:8 0.182800
9 *248:16 *248:17 6.946400
10 *248:18 *544:A2 0.541088
11 *248:19 *248:16 5.301200
12 *248:20 *248:21 2.742000
13 *248:13 *546:A1N 0.182800
14 *248:23 *248:15 2.102200
15 *248:25 *248:24 13.892800
16 *248:24 *248:2 2.000000
17 *248:23 *248:5 2.000000
18 *248:19 *248:20 2.000000
19 *248:17 *248:3 2.000000
20 *248:25 *248:16 2.000000
21 *248:7 *248:21 2.000000
22 *248:1 *248:18 2.000000
23 *248:9 *248:14 2.000000
24 *248:10 *248:11 2.000000
*END

*D_NET *249 1.208617

*CONN
*I *544:Y O *C 26.700 18.675
*I *545:B I *C 26.900 18.895
*I *549:B1 I *C 33.700 18.692
*N *249:1 *C 27.500 19.900
*N *249:2 *C 29.100 19.900
*N *249:3 *C 26.700 18.895
*N *249:5 *C 27.500 19.700
*N *249:6 *C 27.500 19.900
*N *249:7 *C 26.900 19.700
*N *249:8 *C 29.100 19.500
*N *249:9 *C 33.700 19.500
*N *249:11 *C 33.700 19.500

*CAP
1 *249:1 0.099298
2 *249:2 0.114294
3 *249:3 0.020748
4 *544:Y 0.012569
5 *249:5 0.030291
6 *249:6 0.009352
7 *249:7 0.051991
8 *249:8 0.352490
9 *249:9 0.337495
10 *545:B 0.039232
11 *249:11 0.070429
12 *549:B1 0.070429

*RES
1 *249:1 *249:2 1.462400
2 *544:Y *249:3 0.201080
3 *249:5 *249:6 0.182800
4 *249:7 *249:5 0.548400
5 *249:8 *249:9 4.204400
6 *249:3 *545:B 0.182800
7 *249:8 *249:2 0.365600
8 *549:B1 *249:11 0.738512
9 *545:B *249:7 0.735770
10 *249:1 *249:6 2.000000
11 *249:9 *249:11 2.000000
*END

*D_NET *250 1.686009

*CONN
*I *546:Y O *C 29.300 18.695
*I *545:A I *C 27.300 18.900
*I *549:B0 I *C 34.100 18.892
*N *250:1 *C 28.100 18.300
*N *250:2 *C 28.100 18.900
*N *250:3 *C 30.700 19.700
*N *250:4 *C 33.900 19.700
*N *250:5 *C 29.300 20.100
*N *250:6 *C 30.700 20.100
*N *250:7 *C 29.100 18.300
*N *250:8 *C 28.100 18.300
*N *250:9 *C 29.100 18.695
*N *250:10 *C 29.100 18.300
*N *250:12 *C 29.300 20.100
*N *250:13 *C 28.100 18.900
*N *250:14 *C 27.300 18.900
*N *250:16 *C 27.300 18.695
*N *250:17 *C 33.900 19.700
*N *250:18 *C 33.900 18.892

*CAP
1 *250:1 0.057657
2 *250:2 0.057657
3 *250:3 0.257642
4 *250:4 0.242646
5 *250:5 0.110024
6 *250:6 0.125020
7 *250:7 0.109218
8 *250:8 0.109218
9 *250:9 0.030725
10 *250:10 0.021156
11 *546:Y 0.114143
12 *250:12 0.104574
13 *250:13 0.090547
14 *250:14 0.090547
15 *545:A 0.011955
16 *250:16 0.011955
17 *250:17 0.059816
18 *250:18 0.070663
19 *549:B0 0.010847

*RES
1 *250:1 *250:2 0.548400
2 *250:3 *250:4 2.924800
3 *250:5 *250:6 1.279600
4 *250:8 *250:7 0.914000
5 *250:10 *250:9 0.361030
6 *546:Y *250:12 1.284170
7 *250:14 *250:13 0.731200
8 *250:3 *250:6 0.365600
9 *250:16 *545:A 0.187370
10 *250:18 *250:17 0.738512
11 *250:9 *546:Y 0.182800
12 *250:18 *549:B0 0.182800
13 *250:2 *250:13 2.000000
14 *250:5 *250:12 2.000000
15 *250:7 *250:10 2.000000
16 *250:4 *250:17 2.000000
17 *250:1 *250:8 2.000000
18 *250:14 *545:A 2.000000
*END

*D_NET *251 0.501338

*CONN
*I *545:Y O *C 27.900 19.092
*I *547:B0 I *C 30.700 18.895
*N *251:2 *C 27.900 19.300
*N *251:3 *C 27.900 19.300
*N *251:4 *C 30.700 19.300
*N *251:5 *C 30.700 19.300

*CAP
1 *545:Y 0.020500
2 *251:2 0.020500
3 *251:3 0.202993
4 *251:4 0.202993
5 *251:5 0.027176
6 *547:B0 0.027176

*RES
1 *545:Y *251:2 0.190112
2 *251:3 *251:4 2.559200
3 *547:B0 *251:5 0.370170
4 *251:4 *251:5 2.000000
5 *251:3 *251:2 2.000000
*END

*D_NET *252 0.099552

*CONN
*I *548:B I *C 31.300 19.092
*I *547:Y O *C 30.900 18.695
*N *252:2 *C 30.900 19.092

*CAP
1 *548:B 0.015949
2 *252:2 0.049776
3 *547:Y 0.033827

*RES
1 *252:2 *548:B 0.365600
2 *547:Y *252:2 0.362858
*END

*D_NET *253 2.448453

*CONN
*I *543:B0 I *C 24.700 19.075
*I *551:Y O *C 35.700 19.300
*N *253:1 *C 33.800 20.700
*N *253:2 *C 36.100 20.700
*N *253:3 *C 33.700 21.500
*N *253:4 *C 33.700 21.100
*N *253:6 *C 24.700 21.500
*N *253:7 *C 36.100 19.700
*N *253:8 *C 35.900 19.700
*N *253:9 *C 33.800 21.100
*N *253:10 *C 36.100 20.700
*N *253:11 *C 35.900 19.300
*N *253:13 *C 24.700 21.500
*N *253:14 *C 33.700 21.500
*N *253:15 *C 33.700 21.100
*N *253:16 *C 35.700 19.092

*CAP
1 *253:1 0.172428
2 *253:2 0.157433
3 *253:3 0.033785
4 *253:4 0.033785
5 *543:B0 0.099853
6 *253:6 0.099853
7 *253:7 0.080974
8 *253:8 0.030402
9 *253:9 0.029940
10 *253:10 0.071851
11 *253:11 0.030176
12 *551:Y 0.023450
13 *253:13 0.777511
14 *253:14 0.777511
15 *253:15 0.014945
16 *253:16 0.014555

*RES
1 *253:1 *253:2 2.102200
2 *253:4 *253:3 0.365600
3 *543:B0 *253:6 2.216450
4 *253:8 *253:7 0.182800
5 *253:1 *253:9 0.365600
6 *253:7 *253:10 0.914000
7 *551:Y *253:11 0.182800
8 *253:13 *253:14 8.226000
9 *253:15 *253:9 0.091400
10 *253:11 *253:8 0.365600
11 *253:16 *551:Y 0.190112
12 *253:13 *253:6 2.000000
13 *253:15 *253:4 2.000000
14 *253:2 *253:10 2.000000
15 *253:14 *253:3 2.000000
*END

*D_NET *254 3.805886

*CONN
*I *552:Y O *C 37.100 18.465
*I *463:D I *C 20.900 13.095
*N *254:1 *C 20.900 13.500
*N *254:2 *C 23.900 13.500
*N *254:3 *C 36.900 18.100
*N *254:4 *C 37.100 18.100
*N *254:5 *C 32.100 14.100
*N *254:6 *C 36.900 14.100
*N *254:9 *C 20.900 13.500
*N *254:10 *C 36.900 17.300
*N *254:11 *C 32.100 13.500
*N *254:12 *C 36.900 14.100
*N *254:13 *C 36.900 17.300
*N *254:14 *C 23.900 13.500
*N *254:15 *C 23.900 13.500
*N *254:16 *C 36.900 17.300

*CAP
1 *254:1 0.230953
2 *254:2 0.230953
3 *254:3 0.047516
4 *254:4 0.025748
5 *254:5 0.532631
6 *254:6 0.502658
7 *552:Y 0.015985
8 *463:D 0.027058
9 *254:9 0.027058
10 *254:10 0.037753
11 *254:11 0.844438
12 *254:12 0.234335
13 *254:13 0.234335
14 *254:14 0.814466

*RES
1 *254:1 *254:2 2.742000
2 *254:3 *254:4 0.182800
3 *254:5 *254:6 4.387200
4 *254:4 *552:Y 0.333610
5 *463:D *254:9 0.370170
6 *254:10 *254:3 0.731200
7 *254:11 *254:5 0.548400
8 *254:12 *254:13 2.924800
9 *254:14 *254:11 7.494800
10 *254:6 *254:12 2.000000
11 *254:15 *254:2 2.000000
12 *254:16 *254:10 2.000000
13 *254:13 *254:16 2.000000
14 *254:14 *254:15 2.000000
15 *254:1 *254:9 2.000000
*END

*D_NET *255 0.132076

*CONN
*I *552:B0 I *C 36.900 18.892
*I *553:Y O *C 37.500 19.300
*N *255:2 *C 36.900 19.300
*N *255:4 *C 37.500 19.092

*CAP
1 *552:B0 0.025207
2 *255:2 0.047728
3 *553:Y 0.040831
4 *255:4 0.018310

*RES
1 *552:B0 *255:2 0.372912
2 *255:2 *553:Y 0.548400
3 *255:4 *553:Y 0.190112
*END

*D_NET *256 3.319229

*CONN
*I *554:Y O *C 39.900 18.692
*I *464:D I *C 25.300 13.095
*N *256:1 *C 39.900 17.300
*N *256:3 *C 40.500 13.500
*N *256:4 *C 40.500 17.300
*N *256:5 *C 25.300 13.900
*N *256:6 *C 34.100 13.900
*N *256:7 *C 34.100 13.900
*N *256:8 *C 34.100 13.500
*N *256:9 *C 40.500 17.300
*N *256:10 *C 39.900 17.300
*N *256:12 *C 25.300 13.900
*N *256:13 *C 34.100 13.500
*N *256:14 *C 40.500 13.500

*CAP
1 *256:1 0.065135
2 *554:Y 0.065135
3 *256:3 0.291328
4 *256:4 0.291328
5 *256:5 0.760680
6 *256:6 0.760680
7 *256:7 0.018032
8 *256:8 0.018032
9 *256:9 0.057390
10 *256:10 0.057390
11 *464:D 0.083458
12 *256:12 0.083458
13 *256:13 0.383592
14 *256:14 0.383592

*RES
1 *256:1 *554:Y 1.272288
2 *256:3 *256:4 3.473200
3 *256:5 *256:6 8.043200
4 *256:8 *256:7 0.365600
5 *256:10 *256:9 0.548400
6 *464:D *256:12 0.735770
7 *256:13 *256:14 5.849600
8 *256:14 *256:3 2.000000
9 *256:9 *256:4 2.000000
10 *256:10 *256:1 2.000000
11 *256:6 *256:7 2.000000
12 *256:13 *256:8 2.000000
13 *256:5 *256:12 2.000000
*END

*D_NET *257 5.332524

*CONN
*I *555:Y O *C 4.700 20.500
*I *468:D I *C 32.900 13.095
*N *257:1 *C 17.000 23.900
*N *257:2 *C 17.000 24.100
*N *257:3 *C 33.500 24.100
*N *257:4 *C 33.500 15.100
*N *257:5 *C 33.500 15.100
*N *257:6 *C 32.900 15.100
*N *257:7 *C 4.700 23.900
*N *257:9 *C 4.700 23.900
*N *257:10 *C 32.900 15.100
*N *257:12 *C 33.500 24.100
*N *257:13 *C 4.700 23.900
*N *257:14 *C 4.700 23.900

*CAP
1 *257:1 0.547329
2 *257:2 0.865920
3 *257:3 0.863500
4 *257:4 0.863500
5 *257:5 0.057297
6 *257:6 0.057297
7 *257:7 0.535815
8 *555:Y 0.201041
9 *257:9 0.201041
10 *257:10 0.142688
11 *468:D 0.142688
12 *257:12 0.854407

*RES
1 *257:1 *257:2 0.182800
2 *257:4 *257:3 8.226000
3 *257:6 *257:5 0.548400
4 *257:7 *257:1 11.242200
5 *555:Y *257:9 3.107600
6 *468:D *257:10 1.832570
7 *257:2 *257:12 15.081000
8 *257:13 *257:9 2.000000
9 *257:12 *257:3 2.000000
10 *257:4 *257:5 2.000000
11 *257:14 *257:13 2.000000
12 *257:7 *257:14 2.000000
13 *257:6 *257:10 2.000000
*END

*D_NET *258 1.108975

*CONN
*I *470:D I *C 3.300 14.900
*I *556:Y O *C 5.700 20.700
*N *258:1 *C 4.500 20.700
*N *258:2 *C 5.700 20.700
*N *258:3 *C 3.300 16.500
*N *258:4 *C 4.500 16.500
*N *258:6 *C 3.300 16.500
*N *258:7 *C 4.500 16.500
*N *258:8 *C 4.500 20.700

*CAP
1 *258:1 0.091313
2 *258:2 0.091313
3 *258:3 0.087296
4 *258:4 0.087296
5 *470:D 0.099915
6 *258:6 0.099915
7 *258:7 0.275964
8 *258:8 0.275964

*RES
1 *258:1 *258:2 1.096800
2 *258:3 *258:4 1.096800
3 *470:D *258:6 1.462400
4 *258:7 *258:8 3.838800
5 *258:2 *556:Y 2.000000
6 *258:1 *258:8 2.000000
7 *258:3 *258:6 2.000000
8 *258:4 *258:7 2.000000
*END

*D_NET *259 0.132514

*CONN
*I *556:B0 I *C 5.500 20.300
*I *557:Y O *C 6.100 19.900
*N *259:2 *C 5.500 19.900
*N *259:4 *C 6.100 20.100

*CAP
1 *556:B0 0.024845
2 *259:2 0.048423
3 *557:Y 0.041413
4 *259:4 0.017835

*RES
1 *259:2 *556:B0 0.365600
2 *557:Y *259:4 0.182800
3 *259:2 *557:Y 0.548400
*END

*D_NET *260 0.815315

*CONN
*I *558:Y O *C 8.500 20.500
*I *471:D I *C 7.700 14.900
*N *260:1 *C 8.500 19.900
*N *260:4 *C 7.700 16.700
*N *260:5 *C 8.100 19.900
*N *260:6 *C 8.100 16.700

*CAP
1 *260:1 0.075402
2 *558:Y 0.049280
3 *471:D 0.153219
4 *260:4 0.170453
5 *260:5 0.187925
6 *260:6 0.179036

*RES
1 *260:1 *558:Y 0.548400
2 *471:D *260:4 1.645200
3 *260:5 *260:1 0.365600
4 *260:4 *260:6 0.365600
5 *260:6 *260:5 2.924800
*END

*D_NET *261 1.580590

*CONN
*I *472:D I *C 12.100 14.900
*I *559:Y O *C 10.500 20.500
*N *261:2 *C 12.100 16.700
*N *261:3 *C 12.700 16.700
*N *261:4 *C 12.700 20.300
*N *261:5 *C 12.100 16.700
*N *261:6 *C 12.700 16.700
*N *261:7 *C 11.500 20.500
*N *261:8 *C 10.500 20.500
*N *261:9 *C 11.500 20.300
*N *261:10 *C 12.700 20.300

*CAP
1 *472:D 0.150842
2 *261:2 0.150842
3 *261:3 0.377056
4 *261:4 0.377056
5 *261:5 0.070303
6 *261:6 0.070303
7 *261:7 0.093638
8 *261:8 0.084641
9 *261:9 0.107453
10 *261:10 0.098456

*RES
1 *472:D *261:2 1.645200
2 *261:3 *261:4 3.290400
3 *261:5 *261:6 0.548400
4 *261:8 *261:7 0.914000
5 *261:9 *261:7 0.182800
6 *261:9 *261:10 1.096800
7 *261:5 *261:2 2.000000
8 *261:4 *261:10 2.000000
9 *261:3 *261:6 2.000000
10 *261:8 *559:Y 2.000000
*END

*D_NET *262 1.994069

*CONN
*I *473:D I *C 16.500 15.100
*I *560:Y O *C 12.500 20.690
*N *262:2 *C 16.500 14.900
*N *262:3 *C 14.700 17.300
*N *262:4 *C 14.500 17.300
*N *262:5 *C 12.500 21.300
*N *262:6 *C 14.700 21.300
*N *262:7 *C 14.700 21.300
*N *262:8 *C 14.700 17.300
*N *262:9 *C 14.500 15.100
*N *262:10 *C 16.500 15.100
*N *262:12 *C 12.500 21.300
*N *262:13 *C 14.500 17.300
*N *262:14 *C 14.500 15.100

*CAP
1 *473:D 0.019646
2 *262:2 0.019646
3 *262:3 0.019301
4 *262:4 0.019301
5 *262:5 0.203820
6 *262:6 0.203820
7 *262:7 0.281320
8 *262:8 0.281320
9 *262:9 0.207312
10 *262:10 0.207312
11 *560:Y 0.032523
12 *262:12 0.032523
13 *262:13 0.233112
14 *262:14 0.233112

*RES
1 *262:2 *473:D 0.182800
2 *262:4 *262:3 0.182800
3 *262:5 *262:6 2.010800
4 *262:8 *262:7 3.656000
5 *262:9 *262:10 1.828000
6 *560:Y *262:12 0.557540
7 *262:14 *262:13 2.010800
8 *262:13 *262:4 2.000000
9 *262:3 *262:8 2.000000
10 *262:5 *262:12 2.000000
11 *262:14 *262:9 2.000000
12 *262:10 *473:D 2.000000
13 *262:6 *262:7 2.000000
*END

*D_NET *263 1.920559

*CONN
*I *561:Y O *C 14.500 20.500
*I *474:D I *C 20.900 14.900
*N *263:2 *C 14.500 21.100
*N *263:3 *C 20.300 16.700
*N *263:4 *C 20.900 16.700
*N *263:5 *C 17.300 21.100
*N *263:6 *C 17.300 16.900
*N *263:7 *C 17.300 16.900
*N *263:8 *C 17.300 16.700
*N *263:9 *C 20.300 16.700
*N *263:10 *C 14.500 21.100
*N *263:11 *C 17.300 21.100
*N *263:12 *C 20.900 16.700
*N *263:14 *C 20.300 16.700

*CAP
1 *561:Y 0.046956
2 *263:2 0.046956
3 *263:3 0.056677
4 *263:4 0.056677
5 *263:5 0.260503
6 *263:6 0.260503
7 *263:7 0.009926
8 *263:8 0.253737
9 *263:9 0.243811
10 *263:10 0.201546
11 *263:11 0.201546
12 *263:12 0.140861
13 *474:D 0.140861

*RES
1 *561:Y *263:2 0.548400
2 *263:3 *263:4 0.548400
3 *263:6 *263:5 3.838800
4 *263:8 *263:7 0.182800
5 *263:8 *263:9 2.742000
6 *263:10 *263:11 2.559200
7 *474:D *263:12 1.645200
8 *263:4 *263:12 2.000000
9 *263:10 *263:2 2.000000
10 *263:7 *263:6 2.000000
11 *263:5 *263:11 2.000000
12 *263:14 *263:3 2.000000
13 *263:9 *263:14 2.000000
*END

*D_NET *264 2.293173

*CONN
*I *562:Y O *C 16.500 20.690
*I *475:D I *C 25.300 14.900
*N *264:1 *C 24.900 20.100
*N *264:2 *C 24.900 14.900
*N *264:3 *C 24.900 14.900
*N *264:4 *C 25.300 14.900
*N *264:6 *C 16.500 20.100
*N *264:7 *C 16.500 20.100
*N *264:8 *C 24.900 20.100

*CAP
1 *264:1 0.459803
2 *264:2 0.459803
3 *264:3 0.045959
4 *264:4 0.045959
5 *562:Y 0.030110
6 *264:6 0.030110
7 *264:7 0.610713
8 *264:8 0.610713

*RES
1 *264:2 *264:1 4.752800
2 *264:3 *264:4 0.365600
3 *264:6 *562:Y 0.539260
4 *264:7 *264:8 7.677600
5 *264:2 *264:3 2.000000
6 *264:1 *264:8 2.000000
7 *264:7 *264:6 2.000000
8 *264:4 *475:D 2.000000
*END

*D_NET *265 2.596069

*CONN
*I *476:D I *C 29.700 14.900
*I *563:Y O *C 18.500 20.500
*N *265:2 *C 29.700 15.100
*N *265:3 *C 22.100 17.000
*N *265:4 *C 22.100 20.700
*N *265:5 *C 20.300 20.700
*N *265:6 *C 20.300 20.500
*N *265:7 *C 22.300 15.100
*N *265:8 *C 22.300 17.000
*N *265:9 *C 22.100 20.700
*N *265:10 *C 29.700 15.100
*N *265:11 *C 22.300 15.100
*N *265:12 *C 18.500 20.500

*CAP
1 *476:D 0.019743
2 *265:2 0.019743
3 *265:3 0.268275
4 *265:4 0.259485
5 *265:5 0.120405
6 *265:6 0.150224
7 *265:7 0.166020
8 *265:8 0.174810
9 *265:9 0.111408
10 *265:10 0.582366
11 *265:11 0.582366
12 *265:12 0.141227

*RES
1 *476:D *265:2 0.182800
2 *265:3 *265:4 3.381800
3 *265:6 *265:5 0.182800
4 *265:7 *265:8 1.736600
5 *265:5 *265:9 1.645200
6 *265:11 *265:10 6.763600
7 *265:12 *265:6 1.645200
8 *265:3 *265:8 0.182800
9 *265:12 *563:Y 2.000000
10 *265:4 *265:9 2.000000
11 *265:7 *265:11 2.000000
12 *265:10 *265:2 2.000000
*END

*D_NET *266 3.294163

*CONN
*I *477:D I *C 34.100 14.900
*I *564:Y O *C 20.500 20.690
*N *266:1 *C 34.100 14.300
*N *266:4 *C 20.500 19.700
*N *266:5 *C 23.700 19.700
*N *266:6 *C 23.700 14.300
*N *266:7 *C 23.700 14.300
*N *266:8 *C 34.100 14.300
*N *266:9 *C 20.500 19.700
*N *266:10 *C 23.700 19.700

*CAP
1 *266:1 0.028395
2 *477:D 0.028395
3 *564:Y 0.094207
4 *266:4 0.094207
5 *266:5 0.388633
6 *266:6 0.388633
7 *266:7 0.880451
8 *266:8 0.880451
9 *266:9 0.255396
10 *266:10 0.255396

*RES
1 *266:1 *477:D 0.548400
2 *266:4 *564:Y 0.904860
3 *266:6 *266:5 4.935600
4 *266:7 *266:8 9.505600
5 *266:9 *266:10 2.924800
6 *266:8 *266:1 2.000000
7 *266:6 *266:7 2.000000
8 *266:5 *266:10 2.000000
9 *266:9 *266:4 2.000000
*END

*D_NET *267 3.808487

*CONN
*I *565:Y O *C 22.500 20.500
*I *481:D I *C 6.300 15.895
*N *267:1 *C 13.100 15.100
*N *267:2 *C 13.100 18.100
*N *267:3 *C 22.500 19.900
*N *267:5 *C 6.300 15.100
*N *267:6 *C 13.100 15.100
*N *267:7 *C 13.100 18.100
*N *267:8 *C 22.500 18.100
*N *267:9 *C 22.500 18.100
*N *267:10 *C 22.500 19.900
*N *267:12 *C 6.300 15.100
*N *267:13 *C 22.500 19.900

*CAP
1 *267:1 0.314638
2 *267:2 0.314638
3 *267:3 0.032554
4 *565:Y 0.032554
5 *267:5 0.566677
6 *267:6 0.566677
7 *267:7 0.783908
8 *267:8 0.783908
9 *267:9 0.146098
10 *267:10 0.146098
11 *481:D 0.060369
12 *267:12 0.060369

*RES
1 *267:1 *267:2 2.742000
2 *267:3 *565:Y 0.548400
3 *267:5 *267:6 6.215200
4 *267:7 *267:8 8.591600
5 *267:9 *267:10 1.645200
6 *267:12 *481:D 0.726630
7 *267:10 *267:13 2.000000
8 *267:1 *267:6 2.000000
9 *267:7 *267:2 2.000000
10 *267:13 *267:3 2.000000
11 *267:8 *267:9 2.000000
12 *267:5 *267:12 2.000000
*END

*D_NET *268 3.176457

*CONN
*I *482:D I *C 10.700 15.895
*I *566:Y O *C 24.500 20.500
*N *268:1 *C 18.100 16.500
*N *268:2 *C 25.300 16.500
*N *268:3 *C 16.900 16.100
*N *268:4 *C 18.100 16.100
*N *268:5 *C 15.900 16.300
*N *268:6 *C 16.900 16.300
*N *268:7 *C 10.700 16.500
*N *268:8 *C 15.900 16.500
*N *268:9 *C 25.300 20.500
*N *268:10 *C 24.500 20.500
*N *268:11 *C 15.900 16.500
*N *268:12 *C 15.900 16.300
*N *268:14 *C 10.700 16.500
*N *268:15 *C 25.300 16.500
*N *268:16 *C 25.300 20.500

*CAP
1 *268:1 0.543886
2 *268:2 0.528515
3 *268:3 0.119235
4 *268:4 0.127969
5 *268:5 0.064254
6 *268:6 0.070890
7 *268:7 0.381347
8 *268:8 0.381347
9 *268:9 0.066705
10 *268:10 0.066705
11 *268:11 0.022247
12 *268:12 0.022247
13 *482:D 0.024299
14 *268:14 0.024299
15 *268:15 0.366256
16 *268:16 0.366256

*RES
1 *268:1 *268:2 6.580800
2 *268:3 *268:4 1.096800
3 *268:4 *268:1 0.365600
4 *268:5 *268:6 0.914000
5 *268:7 *268:8 4.752800
6 *268:10 *268:9 0.731200
7 *268:12 *268:11 0.182800
8 *268:3 *268:6 0.182800
9 *482:D *268:14 0.552970
10 *268:15 *268:16 3.656000
11 *268:7 *268:14 2.000000
12 *268:5 *268:12 2.000000
13 *268:10 *566:Y 2.000000
14 *268:2 *268:15 2.000000
15 *268:11 *268:8 2.000000
16 *268:16 *268:9 2.000000
*END

*D_NET *269 11.910596

*CONN
*I *561:S0 I *C 12.900 20.700
*I *552:A0 I *C 36.300 18.715
*I *551:A I *C 36.100 18.715
*I *557:A I *C 6.500 20.490
*I *553:A I *C 37.900 18.692
*I *554:S0 I *C 38.300 18.692
*I *560:S0 I *C 10.900 20.690
*I *565:S0 I *C 20.900 20.500
*I *542:S0 I *C 22.300 18.900
*I *559:S0 I *C 8.900 20.500
*I *562:S0 I *C 14.900 20.700
*I *341:B0 I *C 8.900 4.900
*I *583:A0 I *C 11.300 21.500
*I *567:Y O *C 25.900 20.100
*I *543:A0 I *C 24.100 18.900
*I *564:S0 I *C 18.900 20.690
*I *541:S0 I *C 20.300 18.692
*I *572:A0 I *C 33.900 20.500
*I *558:S0 I *C 6.900 20.500
*I *566:S0 I *C 22.900 20.690
*I *340:B I *C 7.500 4.900
*I *555:S0 I *C 3.100 20.300
*I *563:S0 I *C 16.900 20.500
*I *578:AN I *C 4.500 21.692
*I *556:A0 I *C 4.900 20.300
*N *269:2 *C 12.900 20.500
*N *269:3 *C 22.300 18.900
*N *269:4 *C 22.900 18.900
*N *269:5 *C 20.900 19.500
*N *269:6 *C 20.900 19.300
*N *269:10 *C 6.500 20.300
*N *269:13 *C 37.900 18.500
*N *269:14 *C 36.300 18.500
*N *269:16 *C 10.900 20.700
*N *269:17 *C 20.900 21.700
*N *269:19 *C 22.300 19.300
*N *269:21 *C 4.100 20.300
*N *269:22 *C 4.100 21.100
*N *269:23 *C 18.900 21.700
*N *269:24 *C 20.900 21.700
*N *269:25 *C 36.100 18.892
*N *269:26 *C 6.500 20.300
*N *269:27 *C 5.900 20.300
*N *269:28 *C 22.300 18.510
*N *269:29 *C 8.700 20.500
*N *269:31 *C 12.900 20.700
*N *269:32 *C 14.900 20.700
*N *269:33 *C 22.300 19.300
*N *269:35 *C 14.900 20.690
*N *269:36 *C 24.100 18.900
*N *269:37 *C 6.500 20.500
*N *269:39 *C 8.900 4.892
*N *269:40 *C 11.900 20.700
*N *269:41 *C 11.900 21.500
*N *269:43 *C 11.300 21.510
*N *269:44 *C 10.900 20.700
*N *269:45 *C 11.900 20.700
*N *269:46 *C 25.900 19.500
*N *269:49 *C 24.300 18.900
*N *269:50 *C 18.900 21.700
*N *269:52 *C 24.300 19.500
*N *269:53 *C 20.300 19.500
*N *269:55 *C 20.300 19.500
*N *269:56 *C 33.900 22.100
*N *269:58 *C 14.900 21.700
*N *269:59 *C 16.900 21.700
*N *269:60 *C 8.700 20.300
*N *269:61 *C 10.900 20.300
*N *269:62 *C 11.900 21.500
*N *269:63 *C 11.300 21.500
*N *269:65 *C 6.500 20.100
*N *269:66 *C 8.700 20.100
*N *269:67 *C 33.900 22.100
*N *269:68 *C 37.900 22.100
*N *269:69 *C 4.900 20.300
*N *269:70 *C 14.900 21.700
*N *269:71 *C 22.900 18.900
*N *269:73 *C 8.700 20.100
*N *269:74 *C 20.900 19.500
*N *269:75 *C 36.300 18.500
*N *269:77 *C 7.500 5.275
*N *269:78 *C 37.900 18.710
*N *269:79 *C 24.300 19.500
*N *269:80 *C 25.900 19.500
*N *269:81 *C 37.900 18.500
*N *269:83 *C 3.100 20.500
*N *269:84 *C 24.100 18.715
*N *269:85 *C 4.100 20.300
*N *269:86 *C 3.100 20.300
*N *269:87 *C 37.900 22.100
*N *269:88 *C 10.900 20.300
*N *269:89 *C 7.500 4.900
*N *269:90 *C 8.900 4.900
*N *269:91 *C 4.500 21.100
*N *269:92 *C 25.900 22.300
*N *269:93 *C 33.800 22.100
*N *269:94 *C 5.900 4.900
*N *269:95 *C 25.900 22.300
*N *269:96 *C 33.800 22.300
*N *269:97 *C 16.900 21.700
*N *269:99 *C 5.900 20.300
*N *269:100 *C 5.900 4.900

*CAP
1 *561:S0 0.021055
2 *269:2 0.021055
3 *269:3 0.057785
4 *269:4 0.155246
5 *269:5 0.063111
6 *269:6 0.151188
7 *552:A0 0.019922
8 *551:A 0.020180
9 *557:A 0.026582
10 *269:10 0.019378
11 *553:A 0.031452
12 *554:S0 0.017010
13 *269:13 0.134552
14 *269:14 0.134552
15 *560:S0 0.041615
16 *269:16 0.007629
17 *269:17 0.086525
18 *565:S0 0.189006
19 *269:19 0.049539
20 *542:S0 0.085219
21 *269:21 0.049742
22 *269:22 0.084218
23 *269:23 0.417040
24 *269:24 0.209808
25 *269:25 0.010384
26 *269:26 0.053383
27 *269:27 0.107634
28 *269:28 0.035680
29 *269:29 0.047101
30 *559:S0 0.010819
31 *269:31 0.235012
32 *269:32 0.150203
33 *269:33 0.142191
34 *562:S0 0.093012
35 *269:35 0.010899
36 *269:36 0.097461
37 *269:37 0.023152
38 *341:B0 0.004281
39 *269:39 0.004281
40 *269:40 0.058113
41 *269:41 0.058113
42 *583:A0 0.007629
43 *269:43 0.007629
44 *269:44 0.071204
45 *269:45 0.156013
46 *269:46 0.035049
47 *567:Y 0.126218
48 *543:A0 0.024988
49 *269:49 0.044639
50 *269:50 0.048389
51 *564:S0 0.048389
52 *269:52 0.034296
53 *269:53 0.045705
54 *541:S0 0.045705
55 *269:55 0.054114
56 *269:56 0.122099
57 *572:A0 0.122099
58 *269:58 0.148515
59 *269:59 0.355748
60 *269:60 0.189185
61 *269:61 0.180187
62 *269:62 0.057199
63 *269:63 0.057199
64 *558:S0 0.015949
65 *269:65 0.210005
66 *269:66 0.210005
67 *269:67 0.277164
68 *269:68 0.265319
69 *269:69 0.119398
70 *269:70 0.082113
71 *269:71 0.114210
72 *566:S0 0.114210
73 *269:73 0.036281
74 *269:74 0.102481
75 *269:75 0.010126
76 *340:B 0.023703
77 *269:77 0.023703
78 *269:78 0.204349
79 *269:79 0.107596
80 *269:80 0.107596
81 *269:81 0.009918
82 *555:S0 0.010730
83 *269:83 0.010730
84 *269:84 0.014644
85 *269:85 0.136559
86 *269:86 0.080409
87 *269:87 0.199826
88 *269:88 0.033985
89 *269:89 0.270170
90 *269:90 0.143570
91 *269:91 0.095745
92 *269:92 0.091169
93 *269:93 0.020842
94 *269:94 0.126600
95 *269:95 0.382782
96 *269:96 0.391779
97 *269:97 0.048011
98 *563:S0 0.048011
99 *269:99 1.246153
100 *269:100 1.246153
101 *578:AN 0.061269

*RES
1 *269:2 *561:S0 0.182800
2 *269:3 *269:4 0.548400
3 *269:6 *269:5 0.182800
4 *551:A *552:A0 0.182800
5 *269:10 *557:A 0.173660
6 *553:A *554:S0 0.365600
7 *269:14 *269:13 1.462400
8 *560:S0 *269:16 0.009140
9 *565:S0 *269:17 1.096800
10 *542:S0 *269:19 0.365600
11 *269:21 *269:22 0.731200
12 *269:23 *269:24 1.828000
13 *551:A *269:25 0.161778
14 *269:27 *269:26 0.548400
15 *269:28 *542:S0 0.356460
16 *269:29 *559:S0 0.182800
17 *269:31 *269:32 1.828000
18 *269:6 *269:33 1.279600
19 *269:35 *562:S0 0.009140
20 *269:4 *269:36 1.096800
21 *557:A *269:37 0.009140
22 *269:39 *341:B0 0.007312
23 *269:40 *269:41 0.731200
24 *583:A0 *269:43 0.009140
25 *269:44 *269:45 0.914000
26 *269:46 *567:Y 0.548400
27 *543:A0 *269:49 0.182800
28 *564:S0 *269:50 0.923140
29 *269:49 *269:52 0.548400
30 *541:S0 *269:53 0.738512
31 *269:55 *269:5 0.548400
32 *572:A0 *269:56 1.462400
33 *269:58 *269:59 1.828000
34 *269:60 *269:61 2.010800
35 *269:63 *269:62 0.548400
36 *269:37 *558:S0 0.365600
37 *269:65 *269:66 2.010800
38 *269:67 *269:68 3.656000
39 *269:69 *269:27 0.914000
40 *562:S0 *269:70 0.914000
41 *269:71 *566:S0 1.636060
42 *269:73 *269:29 0.365600
43 *269:74 *565:S0 0.914000
44 *269:75 *552:A0 0.196510
45 *340:B *269:77 0.342750
46 *553:A *269:78 0.016452
47 *269:79 *269:80 1.462400
48 *269:45 *269:31 0.914000
49 *269:81 *553:A 0.175488
50 *555:S0 *269:83 0.182800
51 *269:65 *269:26 0.182800
52 *269:84 *543:A0 0.169090
53 *269:86 *269:85 0.914000
54 *269:78 *269:87 3.098460
55 *269:88 *560:S0 0.356460
56 *269:85 *269:69 0.731200
57 *269:89 *269:90 1.279600
58 *269:22 *269:91 0.365600
59 *567:Y *269:92 2.010800
60 *269:93 *269:67 0.091400
61 *269:94 *269:89 1.462400
62 *269:59 *269:23 1.828000
63 *269:95 *269:96 7.220600
64 *269:93 *269:96 0.182800
65 *563:S0 *269:97 1.096800
66 *269:100 *269:99 14.075600
67 *269:66 *269:60 0.182800
68 *269:91 *578:AN 0.541088
69 *269:79 *269:52 2.000000
70 *269:26 *269:10 2.000000
71 *269:67 *269:56 2.000000
72 *269:24 *269:17 2.000000
73 *269:23 *269:50 2.000000
74 *269:36 *543:A0 2.000000
75 *269:99 *269:27 2.000000
76 *269:5 *269:74 2.000000
77 *269:55 *269:53 2.000000
78 *269:31 *561:S0 2.000000
79 *269:80 *269:46 2.000000
80 *269:59 *269:97 2.000000
81 *269:14 *269:75 2.000000
82 *269:32 *562:S0 2.000000
83 *269:100 *269:94 2.000000
84 *269:40 *269:45 2.000000
85 *269:63 *583:A0 2.000000
86 *269:85 *269:21 2.000000
87 *269:41 *269:62 2.000000
88 *269:68 *269:87 2.000000
89 *269:4 *269:71 2.000000
90 *269:66 *269:73 2.000000
91 *269:69 *556:A0 2.000000
92 *269:13 *269:81 2.000000
93 *269:89 *340:B 2.000000
94 *269:58 *269:70 2.000000
95 *269:44 *269:16 2.000000
96 *269:33 *269:19 2.000000
97 *269:95 *269:92 2.000000
98 *269:86 *555:S0 2.000000
99 *269:90 *341:B0 2.000000
100 *269:3 *542:S0 2.000000
101 *269:61 *269:88 2.000000
*END

*D_NET *270 10.192849

*CONN
*I *487:B I *C 19.100 15.700
*I *520:B I *C 30.700 17.700
*I *494:B I *C 30.700 15.895
*I *490:B0 I *C 25.300 15.710
*I *512:B I *C 17.700 17.900
*I *507:B0 I *C 11.300 17.500
*I *524:B I *C 34.500 17.700
*I *536:B I *C 14.300 18.500
*I *483:B0 I *C 15.300 16.100
*I *506:B I *C 10.300 17.100
*I *505:A1 I *C 8.900 17.500
*I *532:B I *C 10.500 18.695
*I *501:C0 I *C 4.700 17.300
*I *568:Y O *C 27.300 20.700
*N *270:1 *C 25.300 15.895
*N *270:2 *C 26.100 15.895
*N *270:3 *C 14.900 16.100
*N *270:4 *C 15.300 16.100
*N *270:5 *C 12.300 16.100
*N *270:6 *C 26.100 18.700
*N *270:7 *C 30.500 18.700
*N *270:8 *C 30.700 14.100
*N *270:9 *C 34.100 14.100
*N *270:10 *C 10.100 17.300
*N *270:11 *C 10.300 17.300
*N *270:12 *C 26.100 18.700
*N *270:13 *C 26.100 20.700
*N *270:15 *C 19.100 15.715
*N *270:16 *C 11.100 17.100
*N *270:17 *C 12.300 17.100
*N *270:20 *C 25.300 15.500
*N *270:23 *C 17.700 17.700
*N *270:24 *C 30.700 18.465
*N *270:26 *C 11.300 17.525
*N *270:27 *C 34.500 17.100
*N *270:30 *C 14.300 18.695
*N *270:31 *C 14.900 17.700
*N *270:32 *C 17.100 17.700
*N *270:33 *C 14.900 18.500
*N *270:34 *C 14.300 18.500
*N *270:35 *C 17.100 17.900
*N *270:36 *C 12.300 17.100
*N *270:37 *C 12.300 16.100
*N *270:38 *C 8.900 17.100
*N *270:39 *C 9.300 17.100
*N *270:40 *C 10.300 17.100
*N *270:41 *C 34.100 17.100
*N *270:42 *C 34.500 17.100
*N *270:43 *C 30.500 18.465
*N *270:44 *C 21.500 15.500
*N *270:45 *C 25.300 15.500
*N *270:46 *C 9.300 17.300
*N *270:47 *C 4.700 17.300
*N *270:48 *C 17.700 17.900
*N *270:49 *C 11.100 17.500
*N *270:50 *C 11.300 17.500
*N *270:52 *C 15.300 15.892
*N *270:53 *C 9.300 17.300
*N *270:55 *C 10.300 17.300
*N *270:56 *C 10.100 17.300
*N *270:57 *C 10.100 18.695
*N *270:58 *C 26.100 15.895
*N *270:59 *C 14.900 16.100
*N *270:60 *C 14.900 17.700
*N *270:61 *C 21.500 17.900
*N *270:62 *C 21.500 15.700
*N *270:63 *C 19.100 15.700
*N *270:64 *C 21.500 17.900
*N *270:65 *C 21.500 15.500
*N *270:66 *C 34.100 14.100
*N *270:67 *C 34.100 17.100
*N *270:68 *C 9.300 17.300
*N *270:69 *C 14.900 18.500
*N *270:70 *C 30.700 14.100
*N *270:71 *C 30.500 18.700
*N *270:72 *C 26.100 20.700
*N *270:73 *C 27.300 20.700
*N *270:75 *C 10.100 18.695
*N *270:76 *C 10.500 18.695
*N *270:77 *C 17.700 17.900
*N *270:79 *C 17.700 17.900
*N *270:80 *C 9.300 17.300
*N *270:81 *C 4.700 17.300
*N *270:82 *C 4.700 17.300

*CAP
1 *270:1 0.087652
2 *270:2 0.072807
3 *270:3 0.229881
4 *270:4 0.032647
5 *270:5 0.197235
6 *270:6 0.338325
7 *270:7 0.338325
8 *270:8 0.351986
9 *270:9 0.351986
10 *270:10 0.085217
11 *270:11 0.023822
12 *270:12 0.438883
13 *270:13 0.176540
14 *487:B 0.007771
15 *270:15 0.007771
16 *270:16 0.192426
17 *270:17 0.118984
18 *520:B 0.180174
19 *494:B 0.211098
20 *270:20 0.030714
21 *490:B0 0.030714
22 *512:B 0.013719
23 *270:23 0.013719
24 *270:24 0.064433
25 *507:B0 0.009337
26 *270:26 0.009337
27 *270:27 0.056692
28 *524:B 0.056692
29 *536:B 0.014773
30 *270:30 0.014773
31 *270:31 0.236868
32 *270:32 0.246794
33 *270:33 0.056462
34 *270:34 0.056462
35 *270:35 0.070770
36 *270:36 0.065474
37 *270:37 0.065474
38 *270:38 0.041797
39 *270:39 0.027271
40 *270:40 0.065402
41 *270:41 0.028911
42 *270:42 0.028911
43 *270:43 0.036683
44 *270:44 0.307607
45 *270:45 0.313455
46 *270:46 0.390363
47 *270:47 0.390363
48 *270:48 0.477170
49 *270:49 0.028066
50 *270:50 0.014815
51 *483:B0 0.022722
52 *270:52 0.022722
53 *270:53 0.066608
54 *506:B 0.020271
55 *270:55 0.020271
56 *270:56 0.135565
57 *270:57 0.135565
58 *270:58 0.262343
59 *270:59 0.140657
60 *270:60 0.224830
61 *270:61 0.416326
62 *270:62 0.233985
63 *270:63 0.224988
64 *270:64 0.237956
65 *270:65 0.237956
66 *270:66 0.313469
67 *270:67 0.313469
68 *270:68 0.011322
69 *270:69 0.084174
70 *270:70 0.085787
71 *270:71 0.027114
72 *270:72 0.077004
73 *270:73 0.077004
74 *505:A1 0.025849
75 *270:75 0.033669
76 *270:76 0.033669

*RES
1 *270:1 *270:2 0.731200
2 *270:3 *270:4 0.365600
3 *270:5 *270:3 2.376400
4 *270:6 *270:7 4.021600
5 *270:8 *270:9 3.107600
6 *270:10 *270:11 0.182800
7 *270:12 *270:13 1.828000
8 *487:B *270:15 0.013710
9 *270:16 *270:17 1.096800
10 *494:B *520:B 1.649770
11 *270:20 *490:B0 0.191940
12 *270:23 *512:B 0.182800
13 *520:B *270:24 0.699210
14 *507:B0 *270:26 0.022850
15 *270:27 *524:B 0.548400
16 *536:B *270:30 0.178230
17 *270:31 *270:32 2.010800
18 *270:34 *270:33 0.548400
19 *270:32 *270:35 0.182800
20 *270:37 *270:36 0.914000
21 *270:38 *270:39 0.365600
22 *270:40 *270:16 0.731200
23 *270:41 *270:42 0.365600
24 *270:43 *270:24 0.182800
25 *270:44 *270:45 3.473200
26 *270:47 *270:46 4.204400
27 *270:35 *270:48 0.548400
28 *270:49 *270:50 0.182800
29 *270:52 *483:B0 0.190112
30 *270:53 *270:10 0.731200
31 *270:40 *270:11 0.182800
32 *506:B *270:55 0.182800
33 *270:56 *270:57 1.275030
34 *270:58 *270:12 2.563770
35 *270:59 *270:60 1.462400
36 *270:48 *270:61 3.473200
37 *270:63 *270:62 2.193600
38 *270:65 *270:64 2.193600
39 *270:44 *270:62 0.182800
40 *270:66 *270:67 2.742000
41 *270:39 *270:68 0.182800
42 *270:60 *270:69 0.731200
43 *270:45 *270:1 0.361030
44 *270:70 *494:B 1.640630
45 *270:43 *270:71 0.214790
46 *270:72 *270:73 1.096800
47 *270:38 *505:A1 0.365600
48 *270:16 *270:49 0.365600
49 *270:75 *270:76 0.365600
50 *270:77 *512:B 2.000000
51 *270:66 *270:9 2.000000
52 *270:50 *507:B0 2.000000
53 *270:76 *532:B 2.000000
54 *270:59 *270:3 2.000000
55 *270:63 *487:B 2.000000
56 *270:79 *270:77 2.000000
57 *270:7 *270:71 2.000000
58 *270:42 *270:27 2.000000
59 *270:17 *270:36 2.000000
60 *270:46 *270:80 2.000000
61 *270:5 *270:37 2.000000
62 *270:34 *536:B 2.000000
63 *270:69 *270:33 2.000000
64 *270:12 *270:6 2.000000
65 *270:56 *270:10 2.000000
66 *270:4 *483:B0 2.000000
67 *270:40 *506:B 2.000000
68 *270:47 *270:81 2.000000
69 *270:67 *270:41 2.000000
70 *270:82 *501:C0 2.000000
71 *270:31 *270:60 2.000000
72 *270:53 *270:68 2.000000
73 *270:80 *270:53 2.000000
74 *270:45 *270:20 2.000000
75 *270:81 *270:82 2.000000
76 *270:58 *270:2 2.000000
77 *270:65 *270:44 2.000000
78 *270:61 *270:64 2.000000
79 *270:73 *568:Y 2.000000
80 *270:57 *270:75 2.000000
81 *270:13 *270:72 2.000000
82 *270:48 *270:79 2.000000
83 *270:8 *270:70 2.000000
*END

*D_NET *271 0.053499

*CONN
*I *570:A I *C 28.700 20.300
*I *569:Z O *C 28.300 20.300
*N *271:3 *C 28.300 20.100

*CAP
1 *570:A 0.015949
2 *569:Z 0.026750
3 *271:3 0.010801

*RES
1 *569:Z *570:A 0.365600
2 *271:3 *569:Z 0.182800
*END

*D_NET *272 10.196839

*CONN
*I *534:A I *C 13.100 19.100
*I *522:A I *C 33.300 17.700
*I *518:A I *C 29.500 17.500
*I *539:A2 I *C 18.300 18.700
*I *519:C I *C 30.300 17.500
*I *538:B I *C 17.300 18.700
*I *515:S0 I *C 23.300 17.700
*I *530:A I *C 9.300 18.892
*I *531:C I *C 10.100 18.510
*I *540:B I *C 19.700 18.700
*I *523:C I *C 34.100 17.700
*I *527:S0 I *C 3.100 18.692
*I *495:S0 I *C 31.700 15.892
*I *513:S0 I *C 18.700 17.700
*I *499:B I *C 39.700 16.092
*I *488:S0 I *C 20.100 15.900
*I *498:A2 I *C 38.300 16.092
*I *570:Y O *C 29.100 20.500
*I *535:C I *C 13.900 18.510
*I *525:S0 I *C 35.500 17.700
*N *272:1 *C 13.100 21.900
*N *272:2 *C 9.300 21.900
*N *272:3 *C 38.300 16.092
*N *272:4 *C 39.700 16.092
*N *272:5 *C 20.500 15.900
*N *272:6 *C 20.100 15.900
*N *272:7 *C 35.500 17.500
*N *272:8 *C 36.700 17.500
*N *272:10 *C 13.100 18.892
*N *272:11 *C 23.300 17.300
*N *272:12 *C 29.100 17.300
*N *272:14 *C 33.300 18.100
*N *272:16 *C 29.500 20.500
*N *272:17 *C 30.300 17.500
*N *272:18 *C 30.300 17.700
*N *272:20 *C 18.300 18.892
*N *272:21 *C 13.100 19.100
*N *272:22 *C 13.900 19.100
*N *272:23 *C 21.900 15.900
*N *272:24 *C 20.500 15.900
*N *272:25 *C 33.300 17.690
*N *272:26 *C 13.100 19.500
*N *272:27 *C 13.100 21.900
*N *272:28 *C 15.300 19.700
*N *272:29 *C 15.300 19.500
*N *272:30 *C 18.500 18.700
*N *272:31 *C 9.300 19.500
*N *272:32 *C 10.100 19.500
*N *272:33 *C 19.700 18.700
*N *272:34 *C 20.300 18.700
*N *272:35 *C 33.300 17.700
*N *272:37 *C 30.300 17.700
*N *272:38 *C 20.300 18.300
*N *272:40 *C 17.100 18.700
*N *272:41 *C 17.100 19.700
*N *272:42 *C 17.300 18.692
*N *272:43 *C 17.100 19.700
*N *272:44 *C 21.900 18.300
*N *272:45 *C 23.300 18.300
*N *272:46 *C 18.500 17.700
*N *272:47 *C 30.300 15.100
*N *272:48 *C 34.100 18.100
*N *272:49 *C 34.100 17.700
*N *272:50 *C 35.500 17.700
*N *272:51 *C 23.300 18.300
*N *272:53 *C 9.300 19.300
*N *272:57 *C 19.700 18.892
*N *272:58 *C 29.100 17.500
*N *272:59 *C 29.500 17.500
*N *272:60 *C 9.300 19.300
*N *272:61 *C 3.100 19.300
*N *272:62 *C 36.700 17.500
*N *272:63 *C 36.700 16.900
*N *272:64 *C 36.700 16.900
*N *272:65 *C 38.300 16.900
*N *272:67 *C 9.300 21.900
*N *272:68 *C 3.100 19.300
*N *272:70 *C 18.300 18.700
*N *272:71 *C 31.700 15.100
*N *272:74 *C 17.300 18.700
*N *272:75 *C 30.300 15.100
*N *272:76 *C 31.700 15.100
*N *272:78 *C 39.700 15.910
*N *272:79 *C 21.900 18.300
*N *272:80 *C 21.900 15.900
*N *272:81 *C 23.300 17.300
*N *272:82 *C 13.100 19.500
*N *272:83 *C 13.100 19.500
*N *272:85 *C 20.100 15.710
*N *272:86 *C 38.300 16.900
*N *272:89 *C 13.900 19.100
*N *272:91 *C 20.500 15.900

*CAP
1 *272:1 0.350422
2 *272:2 0.350422
3 *272:3 0.140720
4 *272:4 0.140720
5 *272:5 0.043770
6 *272:6 0.043770
7 *272:7 0.071310
8 *272:8 0.062313
9 *534:A 0.058762
10 *272:10 0.021412
11 *272:11 0.374144
12 *272:12 0.381752
13 *522:A 0.030002
14 *272:14 0.053466
15 *518:A 0.234824
16 *272:16 0.250773
17 *272:17 0.097774
18 *272:18 0.252355
19 *539:A2 0.029854
20 *272:20 0.021773
21 *272:21 0.090547
22 *272:22 0.090547
23 *272:23 0.139577
24 *272:24 0.139577
25 *272:25 0.006521
26 *272:26 0.231795
27 *272:27 0.231795
28 *272:28 0.162498
29 *272:29 0.200624
30 *272:30 0.058582
31 *272:31 0.159508
32 *272:32 0.087921
33 *272:33 0.163267
34 *272:34 0.066742
35 *272:35 0.237933
36 *519:C 0.189412
37 *272:37 0.029723
38 *272:38 0.155838
39 *538:B 0.014388
40 *272:40 0.070132
41 *272:41 0.060563
42 *272:42 0.004819
43 *272:43 0.153501
44 *272:44 0.246516
45 *272:45 0.112560
46 *272:46 0.058582
47 *272:47 0.159689
48 *272:48 0.059263
49 *272:49 0.074356
50 *272:50 0.083353
51 *272:51 0.038982
52 *515:S0 0.076332
53 *272:53 0.027356
54 *530:A 0.017103
55 *531:C 0.058571
56 *540:B 0.011765
57 *272:57 0.011765
58 *272:58 0.048148
59 *272:59 0.123893
60 *272:60 0.487950
61 *272:61 0.487950
62 *272:62 0.067754
63 *272:63 0.067754
64 *272:64 0.131863
65 *272:65 0.131863
66 *523:C 0.029277
67 *272:67 0.119905
68 *272:68 0.034017
69 *527:S0 0.034017
70 *272:70 0.207687
71 *272:71 0.033579
72 *495:S0 0.033579
73 *513:S0 0.008081
74 *272:74 0.089279
75 *272:75 0.136212
76 *272:76 0.136212
77 *499:B 0.011387
78 *272:78 0.011387
79 *272:79 0.220766
80 *272:80 0.220766
81 *272:81 0.037350
82 *272:82 0.191627
83 *272:83 0.037350
84 *488:S0 0.021663
85 *272:85 0.021663
86 *272:86 0.067632
87 *498:A2 0.067632
88 *570:Y 0.015949
89 *272:89 0.035153
90 *535:C 0.035153

*RES
1 *272:2 *272:1 3.473200
2 *272:3 *272:4 1.279600
3 *272:6 *272:5 0.365600
4 *272:7 *272:8 1.096800
5 *272:10 *534:A 0.190112
6 *272:11 *272:12 5.301200
7 *522:A *272:14 0.365600
8 *518:A *272:16 2.742000
9 *272:17 *272:18 0.182800
10 *539:A2 *272:20 0.175488
11 *272:21 *272:22 0.731200
12 *272:24 *272:23 1.279600
13 *272:25 *522:A 0.009140
14 *272:26 *272:27 2.193600
15 *272:29 *272:28 0.182800
16 *539:A2 *272:30 0.182800
17 *272:31 *272:32 0.731200
18 *272:33 *272:34 0.548400
19 *272:18 *272:35 2.742000
20 *519:C *272:37 0.182800
21 *272:38 *272:34 0.365600
22 *272:40 *538:B 0.182800
23 *272:40 *272:41 0.914000
24 *272:42 *538:B 0.007312
25 *272:28 *272:43 1.645200
26 *272:44 *272:45 1.279600
27 *272:46 *272:30 0.914000
28 *272:47 *519:C 2.193600
29 *272:14 *272:48 0.731200
30 *272:49 *272:50 1.279600
31 *515:S0 *272:51 0.548400
32 *530:A *272:53 0.372912
33 *531:C *272:32 0.904860
34 *540:B *272:57 0.175488
35 *272:58 *272:59 0.365600
36 *272:61 *272:60 5.666800
37 *272:63 *272:62 0.548400
38 *272:64 *272:65 1.462400
39 *523:C *272:48 0.365600
40 *272:31 *272:67 2.193600
41 *272:38 *272:44 1.462400
42 *272:53 *272:31 0.182800
43 *527:S0 *272:68 0.555712
44 *272:70 *272:33 1.279600
45 *272:71 *495:S0 0.723888
46 *272:46 *513:S0 0.182800
47 *272:74 *272:70 0.914000
48 *272:75 *272:76 1.279600
49 *272:78 *499:B 0.166348
50 *272:59 *272:17 0.731200
51 *272:80 *272:79 2.193600
52 *272:7 *272:50 0.182800
53 *272:12 *272:58 0.182800
54 *272:81 *515:S0 0.365600
55 *272:82 *272:29 2.010800
56 *534:A *272:83 0.365600
57 *272:85 *488:S0 0.173660
58 *498:A2 *272:86 0.738512
59 *570:Y *272:16 0.365600
60 *535:C *272:89 0.539260
61 *272:91 *272:5 2.000000
62 *272:43 *272:41 2.000000
63 *272:24 *272:91 2.000000
64 *272:4 *499:B 2.000000
65 *272:17 *519:C 2.000000
66 *272:23 *272:80 2.000000
67 *272:50 *525:S0 2.000000
68 *272:27 *272:1 2.000000
69 *272:33 *540:B 2.000000
70 *272:65 *272:86 2.000000
71 *272:6 *488:S0 2.000000
72 *272:75 *272:47 2.000000
73 *272:60 *272:53 2.000000
74 *272:11 *272:81 2.000000
75 *272:82 *272:83 2.000000
76 *272:62 *272:8 2.000000
77 *272:3 *498:A2 2.000000
78 *272:63 *272:64 2.000000
79 *272:45 *272:51 2.000000
80 *272:2 *272:67 2.000000
81 *272:59 *518:A 2.000000
82 *272:74 *538:B 2.000000
83 *272:76 *272:71 2.000000
84 *272:61 *272:68 2.000000
85 *272:26 *272:82 2.000000
86 *272:21 *534:A 2.000000
87 *272:49 *523:C 2.000000
88 *272:79 *272:44 2.000000
89 *272:22 *272:89 2.000000
90 *272:35 *522:A 2.000000
91 *272:70 *539:A2 2.000000
*END

*D_NET *273 2.869025

*CONN
*I *571:D I *C 29.900 20.500
*I *582:Y O *C 10.300 21.895
*N *273:1 *C 17.000 21.900
*N *273:2 *C 29.900 21.900
*N *273:3 *C 29.900 21.900
*N *273:5 *C 17.000 22.300
*N *273:6 *C 17.000 21.900
*N *273:8 *C 10.300 22.300
*N *273:9 *C 10.300 22.300
*N *273:10 *C 17.000 22.300
*N *273:11 *C 10.300 22.300
*N *273:12 *C 10.300 22.300

*CAP
1 *273:1 0.938441
2 *273:2 0.938441
3 *273:3 0.049688
4 *571:D 0.049688
5 *273:5 0.031631
6 *273:6 0.031631
7 *582:Y 0.034123
8 *273:8 0.034123
9 *273:9 0.380629
10 *273:10 0.380629

*RES
1 *273:1 *273:2 11.790600
2 *571:D *273:3 1.279600
3 *273:6 *273:5 0.365600
4 *582:Y *273:8 0.370170
5 *273:9 *273:10 6.123800
6 *273:9 *273:11 2.000000
7 *273:12 *273:8 2.000000
8 *273:2 *273:3 2.000000
9 *273:11 *273:12 2.000000
10 *273:10 *273:5 2.000000
11 *273:6 *273:1 2.000000
*END

*D_NET *274 5.266874

*CONN
*I *580:A1N I *C 6.500 21.510
*I *573:Y O *C 36.500 20.485
*I *572:B0 I *C 34.500 20.500
*N *274:1 *C 34.500 21.900
*N *274:2 *C 36.500 21.900
*N *274:3 *C 6.500 23.100
*N *274:4 *C 34.300 23.100
*N *274:5 *C 34.300 22.100
*N *274:6 *C 34.500 22.100
*N *274:8 *C 6.500 23.100
*N *274:9 *C 36.500 21.900
*N *274:11 *C 34.500 21.900
*N *274:13 *C 34.300 23.100

*CAP
1 *274:1 0.209178
2 *274:2 0.209178
3 *274:3 2.029072
4 *274:4 2.029072
5 *274:5 0.102706
6 *274:6 0.021927
7 *580:A1N 0.076549
8 *274:8 0.076549
9 *274:9 0.099138
10 *573:Y 0.099138
11 *274:11 0.116794
12 *572:B0 0.104501
13 *274:13 0.093072

*RES
1 *274:1 *274:2 1.828000
2 *274:3 *274:4 25.409200
3 *274:5 *274:6 0.182800
4 *580:A1N *274:8 1.453260
5 *573:Y *274:9 1.293310
6 *572:B0 *274:11 1.279600
7 *274:5 *274:13 0.914000
8 *274:11 *274:6 0.182800
9 *274:4 *274:13 2.000000
10 *274:3 *274:8 2.000000
11 *274:2 *274:9 2.000000
12 *274:1 *274:11 2.000000
*END

*D_NET *275 0.742951

*CONN
*I *573:A I *C 35.500 20.300
*I *574:Y O *C 37.700 20.700
*N *275:2 *C 35.500 21.500
*N *275:3 *C 35.500 21.500
*N *275:4 *C 37.700 21.500
*N *275:5 *C 37.700 21.500

*CAP
1 *573:A 0.082667
2 *275:2 0.082667
3 *275:3 0.229579
4 *275:4 0.229579
5 *275:5 0.059229
6 *574:Y 0.059229

*RES
1 *573:A *275:2 1.096800
2 *275:3 *275:4 2.010800
3 *574:Y *275:5 0.731200
4 *275:4 *275:5 2.000000
5 *275:3 *275:2 2.000000
*END

*D_NET *276 0.776362

*CONN
*I *575:Y O *C 39.100 20.700
*I *573:B I *C 35.700 20.500
*N *276:1 *C 38.900 20.700
*N *276:2 *C 38.900 19.700
*N *276:4 *C 38.900 19.700
*N *276:5 *C 35.700 19.700
*N *276:6 *C 35.700 19.700

*CAP
1 *276:1 0.087360
2 *276:2 0.077791
3 *575:Y 0.009569
4 *276:4 0.235122
5 *276:5 0.235122
6 *276:6 0.065699
7 *573:B 0.065699

*RES
1 *276:2 *276:1 0.914000
2 *276:1 *575:Y 0.182800
3 *276:5 *276:4 2.924800
4 *276:6 *573:B 0.731200
5 *276:5 *276:6 2.000000
6 *276:4 *276:2 2.000000
*END

*D_NET *277 1.019532

*CONN
*I *576:Y O *C 40.500 20.700
*I *573:C I *C 35.900 20.125
*N *277:1 *C 40.500 21.100
*N *277:3 *C 35.900 21.100
*N *277:4 *C 40.500 21.100
*N *277:6 *C 35.900 21.100

*CAP
1 *277:1 0.049539
2 *576:Y 0.049539
3 *277:3 0.378097
4 *277:4 0.378097
5 *573:C 0.082130
6 *277:6 0.082130

*RES
1 *576:Y *277:1 0.365600
2 *277:3 *277:4 4.204400
3 *573:C *277:6 0.891150
4 *277:4 *277:1 2.000000
5 *277:3 *277:6 2.000000
*END

*D_NET *278 5.380469

*CONN
*I *573:D I *C 36.300 20.500
*I *577:Y O *C 3.900 21.315
*N *278:1 *C 4.300 22.700
*N *278:2 *C 36.300 22.700
*N *278:3 *C 4.300 21.315
*N *278:4 *C 4.300 22.700
*N *278:5 *C 36.300 22.700
*N *278:8 *C 3.900 21.300

*CAP
1 *278:1 2.432463
2 *278:2 2.432463
3 *278:3 0.112176
4 *278:4 0.077700
5 *278:5 0.138344
6 *573:D 0.138344
7 *577:Y 0.041728
8 *278:8 0.007252

*RES
1 *278:1 *278:2 29.248000
2 *278:3 *278:4 1.265890
3 *573:D *278:5 2.010800
4 *577:Y *278:3 0.365600
5 *278:8 *577:Y 0.013710
6 *278:1 *278:4 2.000000
7 *278:2 *278:5 2.000000
*END

*D_NET *279 1.004353

*CONN
*I *582:B0 I *C 9.100 21.695
*I *578:Z O *C 5.100 21.892
*N *279:1 *C 9.100 22.300
*N *279:4 *C 5.100 22.300
*N *279:5 *C 5.100 22.300
*N *279:6 *C 9.100 22.300

*CAP
1 *279:1 0.046676
2 *582:B0 0.046676
3 *578:Z 0.050331
4 *279:4 0.050331
5 *279:5 0.405169
6 *279:6 0.405169

*RES
1 *582:B0 *279:1 0.552970
2 *578:Z *279:4 0.372912
3 *279:5 *279:6 3.656000
4 *279:6 *279:1 2.000000
5 *279:5 *279:4 2.000000
*END

*D_NET *280 1.407168

*CONN
*I *579:A0 I *C 5.300 21.695
*I *583:Y O *C 11.900 21.315
*N *280:2 *C 5.300 22.500
*N *280:3 *C 11.900 22.500
*N *280:5 *C 5.300 22.500
*N *280:6 *C 11.900 22.500

*CAP
1 *579:A0 0.050962
2 *280:2 0.050962
3 *280:3 0.052732
4 *583:Y 0.052732
5 *280:5 0.599890
6 *280:6 0.599890

*RES
1 *579:A0 *280:2 0.735770
2 *583:Y *280:3 1.083090
3 *280:5 *280:6 6.032400
4 *280:6 *280:3 2.000000
5 *280:5 *280:2 2.000000
*END

*D_NET *281 0.329053

*CONN
*I *580:Y O *C 7.700 21.500
*I *579:A1 I *C 5.700 21.495
*N *281:1 *C 6.900 21.500
*N *281:2 *C 7.700 21.500
*N *281:3 *C 5.700 21.300
*N *281:4 *C 6.900 21.300
*N *281:6 *C 7.700 21.495
*N *281:8 *C 5.700 21.300

*CAP
1 *281:1 0.071197
2 *281:2 0.057332
3 *281:3 0.076929
4 *281:4 0.090794
5 *580:Y 0.003958
6 *281:6 0.003958
7 *579:A1 0.012443
8 *281:8 0.012443

*RES
1 *281:1 *281:2 0.731200
2 *281:3 *281:4 1.096800
3 *281:6 *580:Y 0.004570
4 *281:4 *281:1 0.182800
5 *281:8 *579:A1 0.178230
6 *281:2 *580:Y 2.000000
7 *281:3 *281:8 2.000000
*END

*D_NET *282 4.473910

*CONN
*I *581:B I *C 8.300 21.895
*I *572:Y O *C 34.700 20.700
*N *282:2 *C 8.300 21.900
*N *282:3 *C 33.800 21.300
*N *282:4 *C 33.800 21.500
*N *282:5 *C 34.300 21.500
*N *282:6 *C 34.700 21.500
*N *282:7 *C 34.700 21.500
*N *282:9 *C 17.000 21.300
*N *282:10 *C 8.300 21.900
*N *282:11 *C 8.300 21.500
*N *282:12 *C 17.000 21.500
*N *282:13 *C 34.300 21.500
*N *282:14 *C 8.300 21.500
*N *282:15 *C 34.300 21.500
*N *282:16 *C 8.300 21.900

*CAP
1 *581:B 0.007268
2 *282:2 0.007268
3 *282:3 1.420229
4 *282:4 0.063487
5 *282:5 0.051003
6 *282:6 0.051003
7 *282:7 0.061350
8 *572:Y 0.061350
9 *282:9 1.420229
10 *282:10 0.032351
11 *282:11 0.032351
12 *282:12 0.614368
13 *282:13 0.050385
14 *282:14 0.601267

*RES
1 *581:B *282:2 0.004570
2 *282:3 *282:4 0.182800
3 *282:5 *282:6 0.365600
4 *572:Y *282:7 0.731200
5 *282:9 *282:3 15.355200
6 *282:11 *282:10 0.365600
7 *282:9 *282:12 0.182800
8 *282:4 *282:13 0.457000
9 *282:14 *282:12 7.951800
10 *282:15 *282:5 2.000000
11 *282:13 *282:15 2.000000
12 *282:10 *282:16 2.000000
13 *282:6 *282:7 2.000000
14 *282:16 *282:2 2.000000
15 *282:14 *282:11 2.000000
*END

*D_NET *283 0.436380

*CONN
*I *846:A I *C 16.229 8.674
*I *845:Y O *C 17.829 8.873
*N *283:1 *C 16.700 8.874
*N *283:2 *C 16.700 8.674
*N *283:3 *C 18.100 8.674
*N *283:5 *C 15.900 8.674
*N *283:6 *C 18.100 8.873
*N *283:8 *C 18.100 8.674
*N *283:9 *C 15.900 8.874
*N *283:10 *C 15.900 8.874

*CAP
1 *283:1 0.073063
2 *283:2 0.104874
3 *283:3 0.095877
4 *846:A 0.013684
5 *283:5 0.026113
6 *283:6 0.023137
7 *845:Y 0.011834
8 *283:8 0.011303
9 *283:9 0.064066
10 *283:10 0.012429

*RES
1 *283:2 *283:1 0.182800
2 *283:2 *283:3 1.279600
3 *283:5 *846:A 0.300706
4 *845:Y *283:6 0.247694
5 *283:8 *283:6 0.181886
6 *283:9 *283:1 0.731200
7 *283:5 *283:10 0.182800
8 *283:3 *283:8 2.000000
9 *283:9 *283:10 2.000000
*END

*D_NET *284 6.690150

*CONN
*I *343:CK I *C 14.500 4.892
*I *339:CK I *C 5.300 4.892
*I *571:CK I *C 29.700 20.300
*I *344:CK I *C 18.900 4.700
*I *342:CK I *C 12.300 4.892
*I *846:Y O *C 17.829 8.874
*N *284:1 *C 17.100 9.300
*N *284:2 *C 21.500 9.300
*N *284:3 *C 14.500 4.500
*N *284:5 *C 17.100 8.874
*N *284:6 *C 17.829 8.874
*N *284:7 *C 17.100 4.500
*N *284:8 *C 17.100 4.700
*N *284:9 *C 26.300 14.500
*N *284:10 *C 29.700 14.500
*N *284:11 *C 29.700 14.500
*N *284:12 *C 29.700 19.900
*N *284:14 *C 5.300 5.700
*N *284:15 *C 29.700 19.900
*N *284:17 *C 21.500 10.700
*N *284:18 *C 25.100 10.700
*N *284:19 *C 18.900 4.700
*N *284:20 *C 26.300 10.900
*N *284:21 *C 26.300 14.500
*N *284:22 *C 12.300 4.500
*N *284:23 *C 14.500 4.500
*N *284:24 *C 17.100 4.700
*N *284:25 *C 17.100 8.874
*N *284:27 *C 18.900 4.892
*N *284:28 *C 25.100 10.900
*N *284:29 *C 12.300 5.700
*N *284:31 *C 5.300 5.700
*N *284:32 *C 12.300 5.700
*N *284:33 *C 21.500 9.300
*N *284:34 *C 21.500 10.700
*N *284:35 *C 17.100 9.300
*N *284:36 *C 26.300 10.900
*N *284:37 *C 12.300 4.500
*N *284:39 *C 29.700 19.900

*CAP
1 *284:1 0.392299
2 *284:2 0.392299
3 *284:3 0.021743
4 *343:CK 0.021743
5 *284:5 0.079461
6 *284:6 0.079461
7 *284:7 0.145024
8 *284:8 0.138772
9 *284:9 0.348369
10 *284:10 0.348369
11 *284:11 0.292091
12 *284:12 0.292091
13 *339:CK 0.029059
14 *284:14 0.029059
15 *284:15 0.049539
16 *571:CK 0.049539
17 *284:17 0.302234
18 *284:18 0.316099
19 *284:19 0.129775
20 *284:20 0.144626
21 *284:21 0.144626
22 *284:22 0.165025
23 *284:23 0.301052
24 *284:24 0.263072
25 *284:25 0.297551
26 *344:CK 0.012168
27 *284:27 0.012168
28 *284:28 0.130420
29 *284:29 0.060921
30 *342:CK 0.093141
31 *284:31 0.638496
32 *284:32 0.638496
33 *284:33 0.074056
34 *284:34 0.074056
35 *284:35 0.034479
36 *284:36 0.116554
37 *284:37 0.032220

*RES
1 *284:1 *284:2 4.021600
2 *284:3 *343:CK 0.358288
3 *284:5 *284:6 0.666306
4 *284:7 *284:8 0.182800
5 *284:9 *284:10 3.107600
6 *284:11 *284:12 4.935600
7 *339:CK *284:14 0.738512
8 *284:15 *571:CK 0.365600
9 *284:17 *284:18 3.290400
10 *284:8 *284:19 1.645200
11 *284:20 *284:21 3.290400
12 *284:22 *284:23 2.010800
13 *284:24 *284:25 3.815036
14 *344:CK *284:27 0.175488
15 *284:18 *284:28 0.182800
16 *342:CK *284:29 0.738512
17 *284:31 *284:32 6.398000
18 *284:33 *284:34 1.279600
19 *284:25 *284:35 0.389364
20 *284:28 *284:36 1.096800
21 *284:37 *342:CK 0.358288
22 *284:23 *284:7 2.376400
23 *284:5 *284:25 2.000000
24 *284:11 *284:10 2.000000
25 *284:6 *846:Y 2.000000
26 *284:39 *284:15 2.000000
27 *284:31 *284:14 2.000000
28 *284:36 *284:20 2.000000
29 *284:17 *284:34 2.000000
30 *284:8 *284:24 2.000000
31 *284:19 *344:CK 2.000000
32 *284:9 *284:21 2.000000
33 *284:12 *284:39 2.000000
34 *284:23 *284:3 2.000000
35 *284:22 *284:37 2.000000
36 *284:1 *284:35 2.000000
37 *284:32 *284:29 2.000000
38 *284:2 *284:33 2.000000
*END
